LAMMPS (4 Jul 2026)
OMP_NUM_THREADS environment is not set. Defaulting to 1 thread.
  using 1 OpenMP thread(s) per MPI task
Loaded 1 plugins from C:\Users\User\AppData\Local\LAMMPS 64-bit 4Jul2026-MSMPI with Python\plugins
# ===========================================================================
#  BP VALIDATION - ZIGZAG transport (heat flows along X)
#  Method: Langevin two-bath NEMD (same method as Song et al. ZnO/hBN papers)
#  Everything is written EXPLICITLY - no runtime branching.
#
#  Run:  lmp -in in.bp_zigzag -var infile bp_zz_W12_L68.data -var seed 11111
# ===========================================================================
units           metal
dimension       3
boundary        p p p
atom_style      atomic

read_data       ${infile}
read_data       bp_zz_W6_L68.data
Reading data file ...
  orthogonal box = (0 0 0) to (224.128 27.264 32.104598)
  10 by 1 by 1 MPI processor grid
  reading atoms ...
  1632 atoms
  read_data CPU = 0.049 seconds

pair_style      sw
pair_coeff      * * bp.sw B T          # type1 -> B (bottom), type2 -> T (top)

neighbor        2.0 bin
neigh_modify    delay 0 every 1 check yes
timestep        0.0005                  # 0.5 fs

# ---------------- slab geometry along X -----------------------------------
variable        xL      equal xlo
variable        xH      equal xhi
variable        wall    equal 6.0       # fixed wall thickness (A)
variable        bath    equal 12.0      # reservoir thickness (A)
variable        x1      equal ${xL}+${wall}
variable        x1      equal 0+${wall}
variable        x1      equal 0+6
variable        x2      equal ${x1}+${bath}
variable        x2      equal 6+${bath}
variable        x2      equal 6+12
variable        x4      equal ${xH}-${wall}
variable        x4      equal 224.128-${wall}
variable        x4      equal 224.128-6
variable        x3      equal ${x4}-${bath}
variable        x3      equal 218.128-${bath}
variable        x3      equal 218.128-12

region          rWL   block ${xL} ${x1} INF INF INF INF units box
region          rWL   block 0 ${x1} INF INF INF INF units box
region          rWL   block 0 6 INF INF INF INF units box
region          rWH   block ${x4} ${xH} INF INF INF INF units box
region          rWH   block 218.128 ${xH} INF INF INF INF units box
region          rWH   block 218.128 224.128 INF INF INF INF units box
region          rHOT  block ${x1} ${x2} INF INF INF INF units box
region          rHOT  block 6 ${x2} INF INF INF INF units box
region          rHOT  block 6 18 INF INF INF INF units box
region          rCOLD block ${x3} ${x4} INF INF INF INF units box
region          rCOLD block 206.128 ${x4} INF INF INF INF units box
region          rCOLD block 206.128 218.128 INF INF INF INF units box

group           gWL   region rWL
48 atoms in group gWL
group           gWH   region rWH
36 atoms in group gWH
group           walls union gWL gWH
84 atoms in group walls
group           gHOT  region rHOT
84 atoms in group gHOT
group           gCOLD region rCOLD
84 atoms in group gCOLD
group           mobile subtract all walls
1548 atoms in group mobile

# ---------------- equilibration -------------------------------------------
velocity        all    create 300.0 ${seed} mom yes rot yes dist gaussian
velocity        all    create 300.0 1 mom yes rot yes dist gaussian
velocity        walls  set 0.0 0.0 0.0
fix             fw walls setforce 0.0 0.0 0.0

fix             f1 mobile npt temp 300.0 300.0 0.05 x 0.0 0.0 0.5 y 0.0 0.0 0.5 couple none
thermo          10000
thermo_style    custom step temp press pe lx ly
run             200000                  # 100 ps NPT
Neighbor list info ...
  update: every = 1 steps, delay = 0 steps, check = yes
  max neighbors/atom: 2000, page size: 100000
  master list distance cutoff = 4.7911
  ghost atom cutoff = 4.7911
  binsize = 2.39555, bins = 94 12 14
  1 neighbor lists, perpetual/occasional/extra = 1 0 0
  (1) pair sw, perpetual
      attributes: full, newton on
      pair build: full/bin/atomonly
      stencil: full/bin/3d
      bin: standard
Per MPI rank memory allocation (min/avg/max) = 3.078 | 3.079 | 3.08 Mbytes
   Step          Temp          Press          PotEng           Lx             Ly      
         0   285.07372     -431.72327     -1829.4319      224.128        27.264       
     10000   303.81401     -128.9413      -1768.8844      225.99251      26.387317    
     20000   293.37397      159.10044     -1770.3438      225.99135      26.40244     
     30000   307.01556      153.2964      -1772.2356      225.83151      26.359018    
     40000   292.71904     -221.64217     -1770.0146      225.58997      26.407409    
     50000   302.39994      17.981783     -1769.4035      225.99664      26.377999    
     60000   297.28731     -57.84005      -1769.1494      226.0214       26.423792    
     70000   295.48593     -2.0427253     -1772.2349      225.95784      26.406993    
     80000   309.40147     -193.67651     -1770.3961      225.88351      26.4368      
     90000   300.60611     -108.42191     -1771.7499      225.79117      26.423299    
    100000   300.36706      120.91534     -1768.5311      225.99848      26.329881    
    110000   286.68538      69.019695     -1769.3059      226.23351      26.346476    
    120000   311.9118       222.09895     -1774.4301      226.19147      26.282548    
    130000   307.8531       324.54259     -1771.0325      225.80484      26.221514    
    140000   300.39648     -373.44933     -1769.5788      226.29174      26.284557    
    150000   305.26716     -36.485244     -1771.1935      225.78797      26.246648    
    160000   293.77618      40.669104     -1767.7796      225.7117       26.315482    
    170000   316.45266      5.8548152     -1769.7071      225.45922      26.331136    
    180000   294.21535      161.26186     -1768.0852      225.52518      26.41153     
    190000   295.0318      -19.68158      -1770.0132      226.1259       26.410727    
    200000   287.29939      28.960394     -1769.3019      225.81596      26.363847    
Loop time of 835.903 on 10 procs for 200000 steps with 1632 atoms

Performance: 10.336 ns/day, 2.322 hours/ns, 239.262 timesteps/s, 390.476 katom-step/s
41.5% CPU use with 10 MPI tasks x 1 OpenMP threads

MPI task timing breakdown:
Section |  min time  |  avg time  |  max time  |%varavg| %total
---------------------------------------------------------------
Pair    | 24.783     | 26.316     | 27.218     |  14.8 |  3.15
Neigh   | 0.090964   | 0.10015    | 0.11112    |   2.1 |  0.01
Comm    | 111.54     | 125.92     | 137.91     |  61.8 | 15.06
Output  | 0.000634   | 0.0006481  | 0.000697   |   0.0 |  0.00
Modify  | 549.97     | 562.99     | 576.62     |  29.0 | 67.35
Other   |            | 120.6      |            |       | 14.42

Nlocal:          163.2 ave         168 max         156 min
Histogram: 4 0 0 0 0 0 0 0 0 6
Nghost:          155.9 ave         162 max         146 min
Histogram: 2 0 0 0 0 1 3 1 1 2
Neighs:              0 ave           0 max           0 min
Histogram: 10 0 0 0 0 0 0 0 0 0
FullNghs:       2609.2 ave        2688 max        2492 min
Histogram: 4 0 0 0 0 0 0 0 0 6

Total # of neighbors = 26092
Ave neighs/atom = 15.987745
Neighbor list builds = 737
Dangerous builds = 0
unfix           f1

fix             f2 mobile nvt temp 300.0 300.0 0.05
run             200000                  # 100 ps NVT
Per MPI rank memory allocation (min/avg/max) = 3.081 | 3.081 | 3.082 Mbytes
   Step          Temp          Press          PotEng           Lx             Ly      
    200000   287.29939      28.960394     -1769.3019      225.81596      26.363847    
    210000   284.88281      72.538054     -1773.3244      225.81596      26.363847    
    220000   283.59957      26.330845     -1773.1009      225.81596      26.363847    
    230000   289.32364     -203.40008     -1775.493       225.81596      26.363847    
    240000   277.42339      73.951348     -1774.8094      225.81596      26.363847    
    250000   284.77275     -0.48156672    -1772.4881      225.81596      26.363847    
    260000   287.4716      -185.62707     -1776.3448      225.81596      26.363847    
    270000   290.95746      126.64284     -1773.4195      225.81596      26.363847    
    280000   287.82073      45.679405     -1772.4675      225.81596      26.363847    
    290000   280.5758      -41.431013     -1771.7465      225.81596      26.363847    
    300000   268.26878     -107.1403      -1774.2459      225.81596      26.363847    
    310000   284.96145     -32.023505     -1776.4215      225.81596      26.363847    
    320000   288.22936     -89.368522     -1772.1971      225.81596      26.363847    
    330000   282.60977     -9.9677277     -1773.3298      225.81596      26.363847    
    340000   284.03402      192.92551     -1773.1291      225.81596      26.363847    
    350000   286.64277     -141.01334     -1774.1324      225.81596      26.363847    
    360000   281.05924      168.29949     -1775.6736      225.81596      26.363847    
    370000   281.22459     -81.705749     -1774.3626      225.81596      26.363847    
    380000   274.61631     -135.507       -1771.3748      225.81596      26.363847    
    390000   282.72881      5.3837547     -1774.0385      225.81596      26.363847    
    400000   284.75088      121.48503     -1775.1405      225.81596      26.363847    
Loop time of 254.097 on 10 procs for 200000 steps with 1632 atoms

Performance: 34.003 ns/day, 0.706 hours/ns, 787.101 timesteps/s, 1.285 Matom-step/s
48.7% CPU use with 10 MPI tasks x 1 OpenMP threads

MPI task timing breakdown:
Section |  min time  |  avg time  |  max time  |%varavg| %total
---------------------------------------------------------------
Pair    | 24.432     | 25.697     | 26.777     |  14.9 | 10.11
Neigh   | 0.029121   | 0.030552   | 0.03395    |   0.8 |  0.01
Comm    | 72.534     | 81.321     | 88.718     |  47.0 | 32.00
Output  | 0.020667   | 0.024511   | 0.026749   |   1.2 |  0.01
Modify  | 76.017     | 81.68      | 90.018     |  54.6 | 32.15
Other   |            | 65.34      |            |       | 25.72

Nlocal:          163.2 ave         168 max         156 min
Histogram: 3 0 0 1 0 0 1 0 0 5
Nghost:          154.5 ave         162 max         145 min
Histogram: 1 1 1 0 1 1 0 3 0 2
Neighs:              0 ave           0 max           0 min
Histogram: 10 0 0 0 0 0 0 0 0 0
FullNghs:         2610 ave        2688 max        2490 min
Histogram: 3 0 0 1 0 0 1 0 0 5

Total # of neighbors = 26100
Ave neighs/atom = 15.992647
Neighbor list builds = 232
Dangerous builds = 0
unfix           f2
reset_timestep  0

# ---------------- NEMD production -----------------------------------------
fix             f3 mobile nve
fix             fhot  gHOT  langevin 320.0 320.0 0.1 ${seed} tally yes
fix             fhot  gHOT  langevin 320.0 320.0 0.1 1 tally yes
fix             fcold gCOLD langevin 280.0 280.0 0.1 ${seed} tally yes
fix             fcold gCOLD langevin 280.0 280.0 0.1 1 tally yes

compute         ke all ke/atom
variable        tatom atom c_ke/(1.5*8.617333262e-5)

# 40 bins along x.  units reduced -> 3rd arg is the bin WIDTH fraction.
variable        nbins equal 40
variable        binw  equal 1.0/${nbins}
variable        binw  equal 1.0/40
compute         cc mobile chunk/atom bin/1d x lower ${binw} units reduced
compute         cc mobile chunk/atom bin/1d x lower 0.025 units reduced
fix             fp mobile ave/chunk 200 2000 400000 cc v_tatom file T_profile.dat

variable        tps equal step*dt
variable        eh  equal f_fhot
variable        ec  equal f_fcold
fix             fm all print 20000 "${tps} ${eh} ${ec}" file ebath.dat                 title "t_ps E_hot_eV E_cold_eV" screen no

thermo          40000
thermo_style    custom step temp f_fhot f_fcold
run             4000000                 # 2 ns production
Per MPI rank memory allocation (min/avg/max) = 4.706 | 4.706 | 4.707 Mbytes
   Step          Temp          f_fhot        f_fcold    
         0   284.75088     -0             -0            
     40000   285.89382     -6.5602113      6.0443604    
     80000   279.66922     -13.104298      10.390095    
    120000   288.40293     -22.617073      19.403226    
    160000   294.87879     -31.868584      26.19961     
    200000   285.82288     -35.129226      33.550636    
    240000   282.73111     -43.63844       42.460031    
    280000   294.40366     -52.913581      50.511483    
    320000   283.3171      -60.547733      59.412803    
    360000   287.89935     -66.611011      64.122779    
    400000   281.35122     -73.844536      72.024565    
    440000   293.32176     -82.005101      76.574119    
    480000   280.82168     -83.135984      84.161275    
    520000   286.95437     -92.076287      90.665349    
    560000   287.21909     -99.895763      98.508106    
    600000   282.63836     -106.57976      103.17948    
    640000   282.53053     -112.60016      108.67013    
    680000   289.84521     -116.8637       114.56893    
    720000   292.05021     -126.21473      123.21937    
    760000   287.5505      -132.95528      130.62047    
    800000   289.96087     -140.03793      137.77494    
    840000   286.06127     -145.74996      143.49453    
    880000   279.27868     -148.09792      148.91411    
    920000   287.89459     -158.60037      158.07826    
    960000   289.99089     -165.06654      163.58598    
   1000000   292.76973     -169.50057      166.03667    
   1040000   283.29026     -178.08332      175.69632    
   1080000   285.67096     -184.31451      182.66337    
   1120000   304.1104      -190.44361      184.73538    
   1160000   294.34827     -193.74142      189.56535    
   1200000   291.03838     -197.95563      196.91997    
   1240000   276.4796      -202.39178      204.12948    
   1280000   274.262       -209.02031      210.17375    
   1320000   290.76664     -213.69497      211.34807    
   1360000   277.18125     -221.62579      221.46525    
   1400000   291.68313     -230.8803       228.1295     
   1440000   289.08854     -241.24839      237.61151    
   1480000   286.5005      -246.14984      244.27184    
   1520000   299.20742     -253.43289      247.61494    
   1560000   286.20443     -258.6511       257.38144    
   1600000   293.35917     -264.12484      261.33776    
   1640000   283.33632     -266.02282      265.04317    
   1680000   284.17178     -272.04598      271.01773    
   1720000   280.94043     -279.51001      279.04405    
   1760000   281.4639      -288.07893      286.15796    
   1800000   288.77176     -294.36139      291.94853    
   1840000   285.80678     -300.99906      299.43713    
   1880000   282.63845     -305.86758      304.86283    
   1920000   283.33033     -314.06911      312.88444    
   1960000   280.03737     -320.48292      320.23193    
   2000000   290.25724     -327.70657      324.99906    
   2040000   289.6         -333.00619      332.24948    
   2080000   287.39483     -340.66587      340.40537    
   2120000   276.67393     -348.33023      348.35595    
   2160000   277.19777     -351.90759      354.26048    
   2200000   281.52031     -361.30494      361.74718    
   2240000   281.28154     -366.9104       367.11144    
   2280000   287.38645     -372.21928      372.58354    
   2320000   279.23348     -379.12153      379.22455    
   2360000   286.89179     -389.04616      385.82937    
   2400000   279.38516     -396.20085      397.09114    
   2440000   294.30503     -404.34959      403.03213    
   2480000   287.73492     -411.37677      410.20068    
   2520000   281.77805     -419.40799      416.79882    
   2560000   292.05528     -427.30954      425.75621    
   2600000   286.35269     -435.42798      434.76854    
   2640000   293.04481     -441.02871      439.19582    
   2680000   289.35139     -446.8721       443.04532    
   2720000   285.65539     -451.28303      448.95449    
   2760000   282.04319     -456.2179       454.16427    
   2800000   288.98863     -464.72959      462.31263    
   2840000   296.42816     -473.25175      466.92192    
   2880000   295.74915     -480.2013       474.28465    
   2920000   290.10933     -486.81567      484.73506    
   2960000   287.69951     -490.97721      490.31477    
   3000000   286.46358     -497.63205      496.38347    
   3040000   285.31557     -500.29898      500.40228    
   3080000   289.06837     -505.13229      503.7586     
   3120000   282.03989     -510.82245      510.93326    
   3160000   279.27761     -514.67249      513.72124    
   3200000   286.17636     -522.29559      520.07414    
   3240000   281.527       -529.24651      528.92602    
   3280000   286.57767     -533.1023       532.73798    
   3320000   281.52114     -539.39063      539.51715    
   3360000   281.85877     -547.54966      546.97697    
   3400000   291.19281     -556.38299      552.50619    
   3440000   289.77252     -560.85688      559.03234    
   3480000   282.19715     -567.87821      567.27356    
   3520000   297.0393      -578.20118      573.8396     
   3560000   286.40944     -583.98668      582.5577     
   3600000   293.67435     -590.53008      587.70803    
   3640000   286.74825     -597.85608      594.26299    
   3680000   291.72567     -603.56513      601.09       
   3720000   287.1892      -609.40248      607.47723    
   3760000   289.85706     -615.8856       611.65125    
   3800000   282.01427     -620.97423      619.74575    
   3840000   285.39304     -626.84488      626.65049    
   3880000   296.69926     -634.87236      631.97693    
   3920000   298.42823     -641.53337      639.35249    
   3960000   286.39897     -648.6763       649.10395    
   4000000   284.21552     -655.77724      654.89966    
Loop time of 1018.8 on 10 procs for 4000000 steps with 1632 atoms

Performance: 169.611 ns/day, 0.142 hours/ns, 3926.186 timesteps/s, 6.408 Matom-step/s
89.0% CPU use with 10 MPI tasks x 1 OpenMP threads

MPI task timing breakdown:
Section |  min time  |  avg time  |  max time  |%varavg| %total
---------------------------------------------------------------
Pair    | 459.44     | 479.38     | 498.22     |  62.5 | 47.05
Neigh   | 0.44039    | 0.45848    | 0.47496    |   1.6 |  0.05
Comm    | 254.09     | 280.76     | 307.49     | 105.3 | 27.56
Output  | 0.031699   | 0.036256   | 0.039431   |   1.4 |  0.00
Modify  | 8.599      | 12.261     | 25.548     | 185.4 |  1.20
Other   |            | 245.9      |            |       | 24.14

Nlocal:          163.2 ave         168 max         156 min
Histogram: 3 1 0 0 0 0 0 0 1 5
Nghost:          155.7 ave         162 max         146 min
Histogram: 1 1 0 0 1 0 3 1 2 1
Neighs:              0 ave           0 max           0 min
Histogram: 10 0 0 0 0 0 0 0 0 0
FullNghs:       2610.8 ave        2688 max        2494 min
Histogram: 3 1 0 0 0 0 0 0 1 5

Total # of neighbors = 26108
Ave neighs/atom = 15.997549
Neighbor list builds = 3607
Dangerous builds = 0

print "DONE zigzag  ${infile}"
DONE zigzag  bp_zz_W6_L68.data
Total wall time: 0:35:08
