LAMMPS (4 Jul 2026)
OMP_NUM_THREADS environment is not set. Defaulting to 1 thread.
  using 1 OpenMP thread(s) per MPI task
Loaded 1 plugins from C:\Users\User\AppData\Local\LAMMPS 64-bit 4Jul2026-MSMPI with Python\plugins
# ===========================================================================
#  BP VALIDATION - ZIGZAG transport (heat flows along X)
#  Method: Langevin two-bath NEMD (same method as Song et al. ZnO/hBN papers)
#  Everything is written EXPLICITLY - no runtime branching.
#
#  Run:  lmp -in in.bp_zigzag -var infile bp_zz_W12_L68.data -var seed 11111
# ===========================================================================
units           metal
dimension       3
boundary        p p p
atom_style      atomic

read_data       ${infile}
read_data       bp_zz_W12_L91.data
Reading data file ...
  orthogonal box = (0 0 0) to (299.936 54.528 32.104598)
  8 by 1 by 1 MPI processor grid
  reading atoms ...
  4368 atoms
  read_data CPU = 0.051 seconds

pair_style      sw
pair_coeff      * * bp.sw B T          # type1 -> B (bottom), type2 -> T (top)

neighbor        2.0 bin
neigh_modify    delay 0 every 1 check yes
timestep        0.0005                  # 0.5 fs

# ---------------- slab geometry along X -----------------------------------
variable        xL      equal xlo
variable        xH      equal xhi
variable        wall    equal 6.0       # fixed wall thickness (A)
variable        bath    equal 12.0      # reservoir thickness (A)
variable        x1      equal ${xL}+${wall}
variable        x1      equal 0+${wall}
variable        x1      equal 0+6
variable        x2      equal ${x1}+${bath}
variable        x2      equal 6+${bath}
variable        x2      equal 6+12
variable        x4      equal ${xH}-${wall}
variable        x4      equal 299.936-${wall}
variable        x4      equal 299.936-6
variable        x3      equal ${x4}-${bath}
variable        x3      equal 293.936-${bath}
variable        x3      equal 293.936-12

region          rWL   block ${xL} ${x1} INF INF INF INF units box
region          rWL   block 0 ${x1} INF INF INF INF units box
region          rWL   block 0 6 INF INF INF INF units box
region          rWH   block ${x4} ${xH} INF INF INF INF units box
region          rWH   block 293.936 ${xH} INF INF INF INF units box
region          rWH   block 293.936 299.936 INF INF INF INF units box
region          rHOT  block ${x1} ${x2} INF INF INF INF units box
region          rHOT  block 6 ${x2} INF INF INF INF units box
region          rHOT  block 6 18 INF INF INF INF units box
region          rCOLD block ${x3} ${x4} INF INF INF INF units box
region          rCOLD block 281.936 ${x4} INF INF INF INF units box
region          rCOLD block 281.936 293.936 INF INF INF INF units box

group           gWL   region rWL
96 atoms in group gWL
group           gWH   region rWH
72 atoms in group gWH
group           walls union gWL gWH
168 atoms in group walls
group           gHOT  region rHOT
168 atoms in group gHOT
group           gCOLD region rCOLD
168 atoms in group gCOLD
group           mobile subtract all walls
4200 atoms in group mobile

# ---------------- equilibration -------------------------------------------
velocity        all    create 300.0 ${seed} mom yes rot yes dist gaussian
velocity        all    create 300.0 1 mom yes rot yes dist gaussian
velocity        walls  set 0.0 0.0 0.0
fix             fw walls setforce 0.0 0.0 0.0

fix             f1 mobile npt temp 300.0 300.0 0.05 x 0.0 0.0 0.5 y 0.0 0.0 0.5 couple none
thermo          10000
thermo_style    custom step temp press pe lx ly
run             200000                  # 100 ps NPT
Neighbor list info ...
  update: every = 1 steps, delay = 0 steps, check = yes
  max neighbors/atom: 2000, page size: 100000
  master list distance cutoff = 4.7911
  ghost atom cutoff = 4.7911
  binsize = 2.39555, bins = 126 23 14
  1 neighbor lists, perpetual/occasional/extra = 1 0 0
  (1) pair sw, perpetual
      attributes: full, newton on
      pair build: full/bin/atomonly
      stencil: full/bin/3d
      bin: standard
Per MPI rank memory allocation (min/avg/max) = 3.107 | 3.108 | 3.109 Mbytes
   Step          Temp          Press          PotEng           Lx             Ly      
         0   287.76755     -428.50431     -4896.4206      299.936        54.528       
     10000   297.82245      46.345253     -4740.5292      301.92588      52.640901    
     20000   297.52457      100.90868     -4737.8874      302.24073      52.622443    
     30000   301.83046     -25.069942     -4743.5889      302.29084      52.647891    
     40000   299.55557      43.523057     -4740.6173      301.89916      52.637049    
     50000   295.50351      124.78271     -4735.3192      301.71364      52.610591    
     60000   296.74293      26.914838     -4740.4414      302.011        52.668924    
     70000   299.12088      87.102288     -4739.1316      301.64657      52.631638    
     80000   294.09578     -99.347976     -4736.3515      302.22861      52.455726    
     90000   294.95153     -40.107412     -4740.4811      301.966        52.70203     
    100000   299.76755     -51.571953     -4740.1751      302.05868      52.735998    
    110000   302.16029     -149.4586      -4737.1082      302.43323      52.623186    
    120000   298.89436     -234.24027     -4738.2303      302.22303      52.714823    
    130000   302.91152      36.186786     -4738.7281      302.14397      52.553414    
    140000   305.88005     -67.246247     -4739.8305      302.36695      52.597511    
    150000   300.55043     -83.704095     -4739.2724      301.9537       52.743951    
    160000   307.81799      16.253501     -4738.8631      302.21112      52.685272    
    170000   303.7637      -83.883393     -4735.9094      302.04806      52.538265    
    180000   302.22492     -8.3237093     -4739.7945      302.34497      52.663591    
    190000   302.77994     -199.98913     -4743.3085      302.46549      52.65296     
    200000   305.83124     -21.37405      -4740.9712      302.50729      52.620853    
Loop time of 136.573 on 8 procs for 200000 steps with 4368 atoms

Performance: 63.263 ns/day, 0.379 hours/ns, 1464.419 timesteps/s, 6.397 Matom-step/s
96.1% CPU use with 8 MPI tasks x 1 OpenMP threads

MPI task timing breakdown:
Section |  min time  |  avg time  |  max time  |%varavg| %total
---------------------------------------------------------------
Pair    | 68.487     | 69.952     | 71.605     |  14.9 | 51.22
Neigh   | 0.21694    | 0.22313    | 0.22812    |   0.8 |  0.16
Comm    | 20.361     | 23.22      | 24.932     |  26.4 | 17.00
Output  | 0.000618   | 0.00063025 | 0.000669   |   0.0 |  0.00
Modify  | 37.838     | 40.217     | 41.666     |  20.8 | 29.45
Other   |            | 2.96       |            |       |  2.17

Nlocal:            546 ave         552 max         528 min
Histogram: 1 1 0 0 0 0 0 0 0 6
Nghost:          265.5 ave         275 max         246 min
Histogram: 1 0 1 0 0 1 0 1 1 3
Neighs:              0 ave           0 max           0 min
Histogram: 8 0 0 0 0 0 0 0 0 0
FullNghs:      8730.25 ave        8832 max        8448 min
Histogram: 2 0 0 0 0 0 0 0 0 6

Total # of neighbors = 69842
Ave neighs/atom = 15.989469
Neighbor list builds = 585
Dangerous builds = 0
unfix           f1

fix             f2 mobile nvt temp 300.0 300.0 0.05
run             200000                  # 100 ps NVT
Per MPI rank memory allocation (min/avg/max) = 3.109 | 3.109 | 3.109 Mbytes
   Step          Temp          Press          PotEng           Lx             Ly      
    200000   305.83124     -21.37405      -4740.9712      302.50729      52.620853    
    210000   289.29121     -39.364279     -4748.5992      302.50729      52.620853    
    220000   288.95728     -86.962744     -4744.203       302.50729      52.620853    
    230000   282.99607     -164.73445     -4745.8253      302.50729      52.620853    
    240000   288.19702     -103.88497     -4745.6911      302.50729      52.620853    
    250000   286.89739     -94.708872     -4747.164       302.50729      52.620853    
    260000   294.73631     -70.705006     -4746.8147      302.50729      52.620853    
    270000   288.05815     -143.96408     -4745.4451      302.50729      52.620853    
    280000   282.22601     -187.22804     -4744.8461      302.50729      52.620853    
    290000   294.73794     -201.85373     -4739.8937      302.50729      52.620853    
    300000   299.35735     -58.917873     -4743.2069      302.50729      52.620853    
    310000   292.26487     -108.5807      -4747.1171      302.50729      52.620853    
    320000   279.90915     -163.48231     -4746.1538      302.50729      52.620853    
    330000   289.09002     -36.125738     -4744.7647      302.50729      52.620853    
    340000   289.41737     -216.06768     -4743.5579      302.50729      52.620853    
    350000   287.9454      -63.546867     -4747.3601      302.50729      52.620853    
    360000   277.68174      76.162582     -4746.9536      302.50729      52.620853    
    370000   282.98631     -188.5526      -4748.1611      302.50729      52.620853    
    380000   282.15671     -27.560665     -4746.7279      302.50729      52.620853    
    390000   286.25944     -150.84066     -4747.2261      302.50729      52.620853    
    400000   286.98205     -228.68378     -4748.0067      302.50729      52.620853    
Loop time of 130.216 on 8 procs for 200000 steps with 4368 atoms

Performance: 66.351 ns/day, 0.362 hours/ns, 1535.912 timesteps/s, 6.709 Matom-step/s
97.9% CPU use with 8 MPI tasks x 1 OpenMP threads

MPI task timing breakdown:
Section |  min time  |  avg time  |  max time  |%varavg| %total
---------------------------------------------------------------
Pair    | 69.44      | 70.626     | 72.476     |  11.0 | 54.24
Neigh   | 0.1053     | 0.11017    | 0.11334    |   0.8 |  0.08
Comm    | 23.902     | 25.256     | 26.709     |  19.8 | 19.40
Output  | 0.000644   | 0.0006565  | 0.000717   |   0.0 |  0.00
Modify  | 31.69      | 32.561     | 33.394     |   9.8 | 25.01
Other   |            | 1.662      |            |       |  1.28

Nlocal:            546 ave         552 max         528 min
Histogram: 1 0 1 0 0 0 0 1 0 5
Nghost:        267.375 ave         275 max         246 min
Histogram: 1 0 0 1 0 0 0 1 1 4
Neighs:              0 ave           0 max           0 min
Histogram: 8 0 0 0 0 0 0 0 0 0
FullNghs:      8732.75 ave        8832 max        8444 min
Histogram: 1 0 1 0 0 0 0 1 0 5

Total # of neighbors = 69862
Ave neighs/atom = 15.994048
Neighbor list builds = 290
Dangerous builds = 0
unfix           f2
reset_timestep  0

# ---------------- NEMD production -----------------------------------------
fix             f3 mobile nve
fix             fhot  gHOT  langevin 320.0 320.0 0.1 ${seed} tally yes
fix             fhot  gHOT  langevin 320.0 320.0 0.1 1 tally yes
fix             fcold gCOLD langevin 280.0 280.0 0.1 ${seed} tally yes
fix             fcold gCOLD langevin 280.0 280.0 0.1 1 tally yes

compute         ke all ke/atom
variable        tatom atom c_ke/(1.5*8.617333262e-5)

# 40 bins along x.  units reduced -> 3rd arg is the bin WIDTH fraction.
variable        nbins equal 40
variable        binw  equal 1.0/${nbins}
variable        binw  equal 1.0/40
compute         cc mobile chunk/atom bin/1d x lower ${binw} units reduced
compute         cc mobile chunk/atom bin/1d x lower 0.025 units reduced
fix             fp mobile ave/chunk 200 2000 400000 cc v_tatom file T_profile.dat

variable        tps equal step*dt
variable        eh  equal f_fhot
variable        ec  equal f_fcold
fix             fm all print 20000 "${tps} ${eh} ${ec}" file ebath.dat                 title "t_ps E_hot_eV E_cold_eV" screen no

thermo          40000
thermo_style    custom step temp f_fhot f_fcold
run             4000000                 # 2 ns production
Per MPI rank memory allocation (min/avg/max) = 4.734 | 4.735 | 4.735 Mbytes
   Step          Temp          f_fhot        f_fcold    
         0   286.98205     -0             -0            
     40000   293.78829     -12.182768      12.184928    
     80000   283.07827     -26.625816      25.183491    
    120000   290.00542     -39.798093      35.499806    
    160000   283.29502     -50.988048      46.964523    
    200000   289.21692     -61.712308      61.959385    
    240000   289.58883     -74.08309       73.369979    
    280000   289.20595     -88.735569      86.444946    
    320000   285.98421     -99.404179      100.18695    
    360000   285.18405     -114.67795      110.61562    
    400000   287.55595     -128.19337      122.40607    
    440000   289.50059     -138.99087      136.2081     
    480000   293.49044     -154.661        151.84609    
    520000   287.82613     -168.05695      163.57872    
    560000   283.44533     -179.56858      180.22071    
    600000   288.23185     -196.20375      192.75422    
    640000   285.65522     -204.06159      202.54927    
    680000   285.15972     -214.93147      215.30949    
    720000   290.45751     -231.87292      227.20379    
    760000   288.8568      -241.72196      235.37329    
    800000   284.86314     -254.54032      250.13964    
    840000   291.43123     -265.95772      264.67817    
    880000   287.45        -279.76553      277.7028     
    920000   289.39033     -292.75751      288.57152    
    960000   291.50588     -307.81933      298.68339    
   1000000   294.58094     -321.20267      315.03786    
   1040000   293.43791     -334.60624      328.7953     
   1080000   284.70409     -348.91195      345.55127    
   1120000   294.20782     -364.51145      358.21367    
   1160000   287.3431      -374.5366       369.62559    
   1200000   292.28756     -382.8966       376.76629    
   1240000   285.75742     -392.37266      388.64253    
   1280000   290.09206     -402.85566      395.66023    
   1320000   291.0672      -413.678        409.76723    
   1360000   285.05986     -426.89729      427.86391    
   1400000   286.1894      -443.13714      438.13525    
   1440000   286.10151     -455.0498       450.98579    
   1480000   289.35942     -469.27097      465.73392    
   1520000   286.3535      -478.1527       477.61567    
   1560000   287.26842     -494.16515      490.25872    
   1600000   287.5378      -506.15027      504.66836    
   1640000   295.0021      -523.96704      518.26151    
   1680000   294.63613     -539.3168       532.61118    
   1720000   289.16871     -546.46728      544.69487    
   1760000   290.23871     -558.91524      557.27072    
   1800000   288.82882     -571.2148       568.22595    
   1840000   290.95132     -584.00315      581.27444    
   1880000   281.31016     -594.51725      594.32864    
   1920000   284.09073     -605.68728      605.94956    
   1960000   287.5574      -616.75282      616.17511    
   2000000   287.77538     -628.17254      623.93676    
   2040000   286.69934     -633.55677      634.09511    
   2080000   289.99152     -647.4785       642.34354    
   2120000   292.16517     -662.2782       659.63989    
   2160000   283.3096      -669.6441       668.40854    
   2200000   289.62396     -686.92552      681.03173    
   2240000   291.85389     -701.75137      692.45335    
   2280000   283.02369     -712.48931      712.4659     
   2320000   292.40372     -730.03106      726.74231    
   2360000   282.56382     -739.38318      737.38291    
   2400000   286.69233     -748.24574      749.62987    
   2440000   285.40729     -760.32441      759.02551    
   2480000   290.88272     -772.48679      771.20964    
   2520000   280.47934     -781.34913      779.84762    
   2560000   291.61345     -790.96809      792.24352    
   2600000   288.99506     -805.3753       800.747      
   2640000   291.6017      -819.56862      815.12496    
   2680000   293.40595     -832.12472      825.95092    
   2720000   293.00275     -843.57768      837.86108    
   2760000   290.29727     -855.64077      849.37046    
   2800000   284.66446     -860.68138      860.31055    
   2840000   286.54381     -874.95329      875.31885    
   2880000   287.68983     -887.21721      886.04877    
   2920000   290.58765     -902.47884      898.67508    
   2960000   286.9328      -911.34032      914.97309    
   3000000   292.32921     -925.97762      924.72936    
   3040000   284.77404     -937.34715      940.68322    
   3080000   286.63155     -953.09759      953.34426    
   3120000   291.49187     -965.06241      961.3127     
   3160000   287.02051     -977.43311      975.64711    
   3200000   285.5588      -992.26402      991.86186    
   3240000   291.33433     -1004.0886      1001.6107    
   3280000   293.96708     -1019.5371      1011.2889    
   3320000   286.58304     -1031.3062      1027.6092    
   3360000   287.98773     -1041.8549      1039.1725    
   3400000   288.1476      -1048.9403      1047.6155    
   3440000   285.00624     -1059.4259      1060.1383    
   3480000   290.61175     -1072.6525      1069.888     
   3520000   289.4394      -1086.824       1082.6019    
   3560000   284.32126     -1097.9153      1097.0784    
   3600000   286.11178     -1107.513       1109.1676    
   3640000   288.62714     -1118.784       1115.5403    
   3680000   286.37671     -1127.1564      1126.9222    
   3720000   289.64433     -1138.5042      1136.742     
   3760000   283.52682     -1152.2615      1149.4674    
   3800000   287.87942     -1160.4592      1160.0244    
   3840000   286.81852     -1174.4054      1173.7635    
   3880000   286.01068     -1185.632       1185.1278    
   3920000   289.32314     -1199.961       1195.009     
   3960000   290.14445     -1211.9921      1205.0862    
   4000000   288.77596     -1219.4593      1217.7413    
Loop time of 2572.81 on 8 procs for 4000000 steps with 4368 atoms

Performance: 67.164 ns/day, 0.357 hours/ns, 1554.722 timesteps/s, 6.791 Matom-step/s
98.1% CPU use with 8 MPI tasks x 1 OpenMP threads

MPI task timing breakdown:
Section |  min time  |  avg time  |  max time  |%varavg| %total
---------------------------------------------------------------
Pair    | 1383.4     | 1404.4     | 1417.6     |  38.0 | 54.59
Neigh   | 1.664      | 1.7267     | 1.7867     |   3.0 |  0.07
Comm    | 484.7      | 501.73     | 520.88     |  56.1 | 19.50
Output  | 0.002978   | 0.0078165  | 0.008515   |   2.1 |  0.00
Modify  | 22.61      | 31.59      | 57.822     | 267.8 |  1.23
Other   |            | 633.4      |            |       | 24.62

Nlocal:            546 ave         552 max         528 min
Histogram: 2 0 0 0 0 0 0 0 0 6
Nghost:         266.25 ave         276 max         247 min
Histogram: 1 0 0 0 1 1 0 3 0 2
Neighs:              0 ave           0 max           0 min
Histogram: 8 0 0 0 0 0 0 0 0 0
FullNghs:      8731.75 ave        8832 max        8436 min
Histogram: 2 0 0 0 0 0 0 0 0 6

Total # of neighbors = 69854
Ave neighs/atom = 15.992216
Neighbor list builds = 4615
Dangerous builds = 0

print "DONE zigzag  ${infile}"
DONE zigzag  bp_zz_W12_L91.data
Total wall time: 0:47:19
