LAMMPS (4 Jul 2026)
OMP_NUM_THREADS environment is not set. Defaulting to 1 thread.
  using 1 OpenMP thread(s) per MPI task
Loaded 1 plugins from C:\Users\User\AppData\Local\LAMMPS 64-bit 4Jul2026-MSMPI with Python\plugins
# ===========================================================================
#  BP VALIDATION - ZIGZAG transport (heat flows along X)
#  Method: Langevin two-bath NEMD (same method as Song et al. ZnO/hBN papers)
#  Everything is written EXPLICITLY - no runtime branching.
#
#  Run:  lmp -in in.bp_zigzag -var infile bp_zz_W12_L68.data -var seed 11111
# ===========================================================================
units           metal
dimension       3
boundary        p p p
atom_style      atomic

read_data       ${infile}
read_data       bp_zz_W12_L68.data
Reading data file ...
  orthogonal box = (0 0 0) to (224.128 54.528 32.104598)
  8 by 1 by 1 MPI processor grid
  reading atoms ...
  3264 atoms
  read_data CPU = 0.040 seconds

pair_style      sw
pair_coeff      * * bp.sw B T          # type1 -> B (bottom), type2 -> T (top)

neighbor        2.0 bin
neigh_modify    delay 0 every 1 check yes
timestep        0.0005                  # 0.5 fs

# ---------------- slab geometry along X -----------------------------------
variable        xL      equal xlo
variable        xH      equal xhi
variable        wall    equal 6.0       # fixed wall thickness (A)
variable        bath    equal 12.0      # reservoir thickness (A)
variable        x1      equal ${xL}+${wall}
variable        x1      equal 0+${wall}
variable        x1      equal 0+6
variable        x2      equal ${x1}+${bath}
variable        x2      equal 6+${bath}
variable        x2      equal 6+12
variable        x4      equal ${xH}-${wall}
variable        x4      equal 224.128-${wall}
variable        x4      equal 224.128-6
variable        x3      equal ${x4}-${bath}
variable        x3      equal 218.128-${bath}
variable        x3      equal 218.128-12

region          rWL   block ${xL} ${x1} INF INF INF INF units box
region          rWL   block 0 ${x1} INF INF INF INF units box
region          rWL   block 0 6 INF INF INF INF units box
region          rWH   block ${x4} ${xH} INF INF INF INF units box
region          rWH   block 218.128 ${xH} INF INF INF INF units box
region          rWH   block 218.128 224.128 INF INF INF INF units box
region          rHOT  block ${x1} ${x2} INF INF INF INF units box
region          rHOT  block 6 ${x2} INF INF INF INF units box
region          rHOT  block 6 18 INF INF INF INF units box
region          rCOLD block ${x3} ${x4} INF INF INF INF units box
region          rCOLD block 206.128 ${x4} INF INF INF INF units box
region          rCOLD block 206.128 218.128 INF INF INF INF units box

group           gWL   region rWL
96 atoms in group gWL
group           gWH   region rWH
72 atoms in group gWH
group           walls union gWL gWH
168 atoms in group walls
group           gHOT  region rHOT
168 atoms in group gHOT
group           gCOLD region rCOLD
168 atoms in group gCOLD
group           mobile subtract all walls
3096 atoms in group mobile

# ---------------- equilibration -------------------------------------------
velocity        all    create 300.0 ${seed} mom yes rot yes dist gaussian
velocity        all    create 300.0 1 mom yes rot yes dist gaussian
velocity        walls  set 0.0 0.0 0.0
fix             fw walls setforce 0.0 0.0 0.0

fix             f1 mobile npt temp 300.0 300.0 0.05 x 0.0 0.0 0.5 y 0.0 0.0 0.5 couple none
thermo          10000
thermo_style    custom step temp press pe lx ly
run             200000                  # 100 ps NPT
Neighbor list info ...
  update: every = 1 steps, delay = 0 steps, check = yes
  max neighbors/atom: 2000, page size: 100000
  master list distance cutoff = 4.7911
  ghost atom cutoff = 4.7911
  binsize = 2.39555, bins = 94 23 14
  1 neighbor lists, perpetual/occasional/extra = 1 0 0
  (1) pair sw, perpetual
      attributes: full, newton on
      pair build: full/bin/atomonly
      stencil: full/bin/3d
      bin: standard
Per MPI rank memory allocation (min/avg/max) = 3.098 | 3.099 | 3.1 Mbytes
   Step          Temp          Press          PotEng           Lx             Ly      
         0   285.2236      -431.45086     -3658.8637      224.128        54.528       
     10000   294.57391     -34.967826     -3542.4137      225.80179      52.756786    
     20000   294.67413      17.681441     -3540.957       225.78172      52.570599    
     30000   303.38179      162.25007     -3542.2474      226.06191      52.604549    
     40000   298.7876       161.89006     -3542.5536      225.63449      52.743746    
     50000   300.46633     -27.126717     -3537.2485      225.71872      52.751736    
     60000   307.48953     -146.38103     -3541.1716      225.73299      52.741212    
     70000   306.9767       30.325102     -3541.3275      225.74322      52.772199    
     80000   300.82166     -36.099958     -3542.0969      225.84893      52.77631     
     90000   297.62658     -80.247379     -3541.162       225.69674      52.77232     
    100000   304.99838      60.622155     -3543.3613      225.80784      52.684506    
    110000   296.47995     -23.432035     -3540.8193      225.83751      52.793703    
    120000   297.25694      46.293256     -3542.4739      225.6813       52.783587    
    130000   293.2132      -139.02663     -3541.9297      225.76285      52.795323    
    140000   296.42392     -71.293148     -3543.2143      225.70453      52.835325    
    150000   301.22586     -1.89866       -3541.9104      225.52263      52.785519    
    160000   300.75657     -19.045001     -3540.4249      225.80579      52.742382    
    170000   302.19029     -28.692176     -3541.1022      225.69179      52.640489    
    180000   293.74992     -107.61685     -3543.937       225.78947      52.638583    
    190000   297.51073      10.820237     -3539.1432      225.7735       52.680219    
    200000   303.02894      167.62958     -3540.2701      225.57365      52.641693    
Loop time of 1534.48 on 8 procs for 200000 steps with 3264 atoms

Performance: 5.631 ns/day, 4.262 hours/ns, 130.337 timesteps/s, 425.421 katom-step/s
49.4% CPU use with 8 MPI tasks x 1 OpenMP threads

MPI task timing breakdown:
Section |  min time  |  avg time  |  max time  |%varavg| %total
---------------------------------------------------------------
Pair    | 114.42     | 116.17     | 119.58     |  14.0 |  7.57
Neigh   | 0.19748    | 0.20826    | 0.21928    |   1.5 |  0.01
Comm    | 245.28     | 247.07     | 249.77     |   9.6 | 16.10
Output  | 0.067568   | 0.07104    | 0.074504   |   0.9 |  0.00
Modify  | 937.55     | 941.37     | 943.91     |   6.8 | 61.35
Other   |            | 229.6      |            |       | 14.96

Nlocal:            408 ave         426 max         401 min
Histogram: 3 2 1 0 0 0 0 1 0 1
Nghost:        223.125 ave         231 max         202 min
Histogram: 1 0 0 1 0 0 0 0 3 3
Neighs:              0 ave           0 max           0 min
Histogram: 8 0 0 0 0 0 0 0 0 0
FullNghs:      6522.25 ave        6816 max        6408 min
Histogram: 3 3 0 0 0 0 0 1 0 1

Total # of neighbors = 52178
Ave neighs/atom = 15.985907
Neighbor list builds = 461
Dangerous builds = 0
unfix           f1

fix             f2 mobile nvt temp 300.0 300.0 0.05
run             200000                  # 100 ps NVT
Per MPI rank memory allocation (min/avg/max) = 3.098 | 3.099 | 3.1 Mbytes
   Step          Temp          Press          PotEng           Lx             Ly      
    200000   303.02894      167.62958     -3540.2701      225.57365      52.641693    
    210000   280.87819      79.674566     -3543.5956      225.57365      52.641693    
    220000   280.30256      119.85616     -3549.8767      225.57365      52.641693    
    230000   279.44396      69.824624     -3549.2857      225.57365      52.641693    
    240000   284.26071      90.953052     -3547.7497      225.57365      52.641693    
    250000   277.61423      101.45958     -3546.2076      225.57365      52.641693    
    260000   288.61218      245.90271     -3551.458       225.57365      52.641693    
    270000   284.60978     -66.430535     -3548.0882      225.57365      52.641693    
    280000   289.4261       169.10263     -3549.2802      225.57365      52.641693    
    290000   280.04032      111.29954     -3549.1567      225.57365      52.641693    
    300000   290.32556      109.5066      -3547.868       225.57365      52.641693    
    310000   291.94326      233.63956     -3546.5325      225.57365      52.641693    
    320000   281.04156      159.87986     -3546.398       225.57365      52.641693    
    330000   280.7466       75.782308     -3545.843       225.57365      52.641693    
    340000   295.10073     -3.3078454     -3550.3265      225.57365      52.641693    
    350000   286.40873      225.77327     -3549.1444      225.57365      52.641693    
    360000   286.0739      -163.2018      -3547.3926      225.57365      52.641693    
    370000   284.31464      120.74897     -3551.5973      225.57365      52.641693    
    380000   286.00198      182.55549     -3549.3675      225.57365      52.641693    
    390000   284.81365      141.09459     -3547.9238      225.57365      52.641693    
    400000   280.90868      6.5196101     -3547.9871      225.57365      52.641693    
Loop time of 140.694 on 8 procs for 200000 steps with 3264 atoms

Performance: 61.410 ns/day, 0.391 hours/ns, 1421.520 timesteps/s, 4.640 Matom-step/s
84.2% CPU use with 8 MPI tasks x 1 OpenMP threads

MPI task timing breakdown:
Section |  min time  |  avg time  |  max time  |%varavg| %total
---------------------------------------------------------------
Pair    | 64.382     | 65.845     | 67.12      |  10.5 | 46.80
Neigh   | 0.087908   | 0.091347   | 0.095631   |   0.8 |  0.06
Comm    | 30.794     | 32.202     | 33.644     |  16.8 | 22.89
Output  | 0.000647   | 0.00065938 | 0.000719   |   0.0 |  0.00
Modify  | 30.815     | 31.676     | 32.717     |  11.9 | 22.51
Other   |            | 10.88      |            |       |  7.73

Nlocal:            408 ave         415 max         393 min
Histogram: 1 0 0 0 0 1 2 2 0 2
Nghost:         221.75 ave         234 max         217 min
Histogram: 3 1 2 0 1 0 0 0 0 1
Neighs:              0 ave           0 max           0 min
Histogram: 8 0 0 0 0 0 0 0 0 0
FullNghs:      6522.75 ave        6636 max        6288 min
Histogram: 1 0 0 0 0 1 2 2 0 2

Total # of neighbors = 52182
Ave neighs/atom = 15.987132
Neighbor list builds = 269
Dangerous builds = 0
unfix           f2
reset_timestep  0

# ---------------- NEMD production -----------------------------------------
fix             f3 mobile nve
fix             fhot  gHOT  langevin 320.0 320.0 0.1 ${seed} tally yes
fix             fhot  gHOT  langevin 320.0 320.0 0.1 1 tally yes
fix             fcold gCOLD langevin 280.0 280.0 0.1 ${seed} tally yes
fix             fcold gCOLD langevin 280.0 280.0 0.1 1 tally yes

compute         ke all ke/atom
variable        tatom atom c_ke/(1.5*8.617333262e-5)

# 40 bins along x.  units reduced -> 3rd arg is the bin WIDTH fraction.
variable        nbins equal 40
variable        binw  equal 1.0/${nbins}
variable        binw  equal 1.0/40
compute         cc mobile chunk/atom bin/1d x lower ${binw} units reduced
compute         cc mobile chunk/atom bin/1d x lower 0.025 units reduced
fix             fp mobile ave/chunk 200 2000 400000 cc v_tatom file T_profile.dat

variable        tps equal step*dt
variable        eh  equal f_fhot
variable        ec  equal f_fcold
fix             fm all print 20000 "${tps} ${eh} ${ec}" file ebath.dat                 title "t_ps E_hot_eV E_cold_eV" screen no

thermo          40000
thermo_style    custom step temp f_fhot f_fcold
run             4000000                 # 2 ns production
Per MPI rank memory allocation (min/avg/max) = 4.723 | 4.725 | 4.725 Mbytes
   Step          Temp          f_fhot        f_fcold    
         0   280.90868     -0             -0            
     40000   286.44645     -17.232327      13.451648    
     80000   286.50371     -31.57847       28.505624    
    120000   287.64386     -45.230677      43.74054     
    160000   277.27476     -57.217696      58.968395    
    200000   279.46891     -78.873808      76.647205    
    240000   277.83269     -91.707935      92.367429    
    280000   287.35695     -110.88396      103.88351    
    320000   289.22067     -126.10738      118.63669    
    360000   284.69778     -137.48077      134.83901    
    400000   283.62495     -149.98901      150.80335    
    440000   282.89959     -161.05503      162.44975    
    480000   283.0017      -178.27858      174.55536    
    520000   289.10471     -191.36619      190.26763    
    560000   278.6804      -205.52111      205.05698    
    600000   279.40052     -218.40167      219.08536    
    640000   283.03965     -234.79728      232.6937     
    680000   287.32161     -249.11892      246.36221    
    720000   285.36728     -263.93476      261.63499    
    760000   288.73292     -274.26927      271.49979    
    800000   277.37933     -288.47758      289.06043    
    840000   279.41677     -300.88162      300.55332    
    880000   282.56108     -315.20077      314.5386     
    920000   284.33826     -328.58376      328.21209    
    960000   280.15245     -341.05466      341.28011    
   1000000   287.44776     -358.30946      357.38566    
   1040000   286.68654     -372.29933      371.32736    
   1080000   291.33995     -385.44344      380.60956    
   1120000   285.3923      -401.50965      398.67967    
   1160000   286.74517     -416.18545      412.16002    
   1200000   279.99828     -426.30112      425.42353    
   1240000   284.64156     -441.9341       439.86884    
   1280000   280.44716     -455.7577       453.94632    
   1320000   287.88719     -472.11423      469.61449    
   1360000   283.04044     -488.1972       486.22058    
   1400000   280.79068     -500.03404      497.93877    
   1440000   291.85863     -512.95512      510.32174    
   1480000   273.96396     -524.9921       525.76743    
   1520000   286.23562     -539.97706      533.94624    
   1560000   286.63421     -553.15597      550.44631    
   1600000   283.71985     -565.66859      561.89229    
   1640000   287.69583     -580.94546      576.19882    
   1680000   294.41907     -598.59313      590.9633     
   1720000   294.29328     -606.03428      603.07809    
   1760000   286.92005     -618.43413      616.16044    
   1800000   289.89796     -632.60217      628.99967    
   1840000   277.78307     -645.8358       643.47463    
   1880000   282.37367     -660.30845      660.68874    
   1920000   284.55948     -672.53201      671.44596    
   1960000   281.3064      -684.42191      683.92001    
   2000000   280.18024     -693.48599      693.80823    
   2040000   282.00386     -707.56241      705.33257    
   2080000   286.48445     -721.73862      716.77323    
   2120000   277.58278     -728.76953      733.04123    
   2160000   282.31986     -744.28199      744.17186    
   2200000   281.15195     -755.76249      756.29628    
   2240000   280.95219     -766.21176      766.17536    
   2280000   288.88045     -778.86744      776.23031    
   2320000   279.5681      -794.58874      794.03207    
   2360000   286.09154     -808.09135      806.36034    
   2400000   278.44703     -819.2299       822.47177    
   2440000   283.42588     -834.48843      835.01892    
   2480000   291.54747     -850.54662      844.70929    
   2520000   287.45253     -862.6089       859.31847    
   2560000   286.53845     -875.28849      872.44178    
   2600000   286.4674      -885.67474      882.06393    
   2640000   282.91812     -894.56299      894.22384    
   2680000   290.89934     -908.66817      906.04831    
   2720000   285.39452     -926.95315      923.57994    
   2760000   290.84201     -942.83905      936.93968    
   2800000   286.09744     -949.12744      949.40577    
   2840000   276.04135     -961.93021      965.02559    
   2880000   284.93109     -976.80136      975.33983    
   2920000   281.89018     -992.6864       992.51304    
   2960000   283.79069     -1003.3929      1002.2231    
   3000000   284.40699     -1015.7185      1015.5951    
   3040000   283.74237     -1026.5412      1027.2447    
   3080000   282.69814     -1036.7973      1037.6125    
   3120000   284.76878     -1052.4258      1050.7464    
   3160000   282.86482     -1066.6692      1066.7223    
   3200000   283.48958     -1083.0821      1083.3654    
   3240000   281.22162     -1092.3765      1094.614     
   3280000   277.71534     -1109.6268      1109.4611    
   3320000   279.79047     -1122.4112      1124.0589    
   3360000   278.94057     -1134.6843      1133.5457    
   3400000   288.37115     -1145.9729      1146.8212    
   3440000   284.03904     -1158.4175      1158.0487    
   3480000   284.42697     -1170.6225      1168.8061    
   3520000   287.80522     -1184.3582      1181.9915    
   3560000   282.77541     -1193.85        1194.7759    
   3600000   280.63749     -1212.2964      1213.2714    
   3640000   276.94109     -1225.9104      1227.21      
   3680000   275.97773     -1242.7912      1245.0265    
   3720000   283.87227     -1256.5938      1254.3973    
   3760000   294.08207     -1267.5782      1261.9978    
   3800000   285.50622     -1281.7301      1279.4751    
   3840000   283.88149     -1296.1533      1296.5958    
   3880000   283.87153     -1307.9465      1307.3217    
   3920000   283.01803     -1320.4765      1320.0896    
   3960000   290.28845     -1334.9642      1331.3385    
   4000000   284.98625     -1346.7163      1341.8164    
Loop time of 5046.32 on 8 procs for 4000000 steps with 3264 atoms

Performance: 34.243 ns/day, 0.701 hours/ns, 792.657 timesteps/s, 2.587 Matom-step/s
97.2% CPU use with 8 MPI tasks x 1 OpenMP threads

MPI task timing breakdown:
Section |  min time  |  avg time  |  max time  |%varavg| %total
---------------------------------------------------------------
Pair    | 2866.8     | 2916.9     | 3008.8     |  69.9 | 57.80
Neigh   | 3.0352     | 3.0638     | 3.1884     |   2.7 |  0.06
Comm    | 1060.2     | 1130.5     | 1202.5     | 123.2 | 22.40
Output  | 0.007019   | 0.018775   | 0.020566   |   3.2 |  0.00
Modify  | 47.776     | 69.486     | 134.05     | 441.4 |  1.38
Other   |            | 926.3      |            |       | 18.36

Nlocal:            408 ave         425 max         400 min
Histogram: 2 0 3 1 1 0 0 0 0 1
Nghost:        220.875 ave         228 max         205 min
Histogram: 1 0 0 0 0 0 3 0 3 1
Neighs:              0 ave           0 max           0 min
Histogram: 8 0 0 0 0 0 0 0 0 0
FullNghs:      6526.25 ave        6796 max        6400 min
Histogram: 2 0 3 2 0 0 0 0 0 1

Total # of neighbors = 52210
Ave neighs/atom = 15.995711
Neighbor list builds = 4244
Dangerous builds = 0

print "DONE zigzag  ${infile}"
DONE zigzag  bp_zz_W12_L68.data
Total wall time: 1:52:01
