LAMMPS (4 Jul 2026)
OMP_NUM_THREADS environment is not set. Defaulting to 1 thread.
  using 1 OpenMP thread(s) per MPI task
Loaded 1 plugins from C:\Users\User\AppData\Local\LAMMPS 64-bit 4Jul2026-MSMPI with Python\plugins
# ===========================================================================
#  BP VALIDATION - ARMCHAIR transport (heat flows along Y)
#  Method: Langevin two-bath NEMD (same method as Song et al. ZnO/hBN papers)
#  Everything is written EXPLICITLY - no runtime branching.
#
#  Run:  lmp -in in.bp_armchair -var infile bp_ac_W16_L50.data -var seed 11111
# ===========================================================================
units           metal
dimension       3
boundary        p p p
atom_style      atomic

read_data       ${infile}
read_data       bp_ac_W16_L33.data
Reading data file ...
  orthogonal box = (0 0 0) to (52.736 149.952 32.104598)
  2 by 4 by 1 MPI processor grid
  reading atoms ...
  2112 atoms
  read_data CPU = 0.027 seconds

pair_style      sw
pair_coeff      * * bp.sw B T          # type1 -> B (bottom), type2 -> T (top)

neighbor        2.0 bin
neigh_modify    delay 0 every 1 check yes
timestep        0.0005                  # 0.5 fs

# ---------------- slab geometry along Y -----------------------------------
variable        xL      equal ylo
variable        xH      equal yhi
variable        wall    equal 6.0       # fixed wall thickness (A)
variable        bath    equal 12.0      # reservoir thickness (A)
variable        x1      equal ${xL}+${wall}
variable        x1      equal 0+${wall}
variable        x1      equal 0+6
variable        x2      equal ${x1}+${bath}
variable        x2      equal 6+${bath}
variable        x2      equal 6+12
variable        x4      equal ${xH}-${wall}
variable        x4      equal 149.952-${wall}
variable        x4      equal 149.952-6
variable        x3      equal ${x4}-${bath}
variable        x3      equal 143.952-${bath}
variable        x3      equal 143.952-12

region          rWL   block INF INF ${xL} ${x1} INF INF units box
region          rWL   block INF INF 0 ${x1} INF INF units box
region          rWL   block INF INF 0 6 INF INF units box
region          rWH   block INF INF ${x4} ${xH} INF INF units box
region          rWH   block INF INF 143.952 ${xH} INF INF units box
region          rWH   block INF INF 143.952 149.952 INF INF units box
region          rHOT  block INF INF ${x1} ${x2} INF INF units box
region          rHOT  block INF INF 6 ${x2} INF INF units box
region          rHOT  block INF INF 6 18 INF INF units box
region          rCOLD block INF INF ${x3} ${x4} INF INF units box
region          rCOLD block INF INF 131.952 ${x4} INF INF units box
region          rCOLD block INF INF 131.952 143.952 INF INF units box

group           gWL   region rWL
80 atoms in group gWL
group           gWH   region rWH
80 atoms in group gWH
group           walls union gWL gWH
160 atoms in group walls
group           gHOT  region rHOT
176 atoms in group gHOT
group           gCOLD region rCOLD
160 atoms in group gCOLD
group           mobile subtract all walls
1952 atoms in group mobile

# ---------------- equilibration -------------------------------------------
velocity        all    create 300.0 ${seed} mom yes rot yes dist gaussian
velocity        all    create 300.0 1 mom yes rot yes dist gaussian
velocity        walls  set 0.0 0.0 0.0
fix             fw walls setforce 0.0 0.0 0.0

fix             f1 mobile npt temp 300.0 300.0 0.05 x 0.0 0.0 0.5 y 0.0 0.0 0.5 couple none
thermo          10000
thermo_style    custom step temp press pe lx ly
run             200000                  # 100 ps NPT
Neighbor list info ...
  update: every = 1 steps, delay = 0 steps, check = yes
  max neighbors/atom: 2000, page size: 100000
  master list distance cutoff = 4.7911
  ghost atom cutoff = 4.7911
  binsize = 2.39555, bins = 23 63 14
  1 neighbor lists, perpetual/occasional/extra = 1 0 0
  (1) pair sw, perpetual
      attributes: full, newton on
      pair build: full/bin/atomonly
      stencil: full/bin/3d
      bin: standard
Per MPI rank memory allocation (min/avg/max) = 3.087 | 3.087 | 3.087 Mbytes
   Step          Temp          Press          PotEng           Lx             Ly      
         0   276.56373     -441.44722     -2367.5001      52.736         149.952      
     10000   301.75307     -127.98576     -2293.5608      53.098712      145.36677    
     20000   303.22775      139.54256     -2290.6811      53.137435      145.11033    
     30000   296.71564     -171.94231     -2290.8737      53.104985      144.6853     
     40000   302.06527      49.078913     -2290.8009      53.155639      144.8655     
     50000   291.52237     -173.36546     -2289.3777      53.141949      144.78748    
     60000   293.10902      179.45245     -2294.288       53.115301      144.92618    
     70000   302.03641     -52.350849     -2292.425       53.141141      145.189      
     80000   304.05798      56.607861     -2291.0256      53.180651      144.78443    
     90000   303.87135     -167.19268     -2290.5142      53.157758      144.93023    
    100000   302.60564      27.384913     -2290.4054      53.153579      144.95694    
    110000   304.49627      63.361401     -2289.3315      53.149507      144.64922    
    120000   300.09161     -13.135179     -2293.1805      53.201192      144.56841    
    130000   297.42531      121.9855      -2291.4301      53.150298      144.6986     
    140000   295.32277      18.808795     -2292.146       53.145499      144.68381    
    150000   292.05988     -55.263485     -2289.1675      53.152532      144.78775    
    160000   299.42737      323.40379     -2290.8498      53.092342      144.76689    
    170000   307.84937     -236.13771     -2288.1914      53.132361      145.18371    
    180000   294.06763      26.914094     -2293.8008      53.097766      144.71783    
    190000   289.22806      27.639602     -2291.0492      53.134784      145.21802    
    200000   304.90411     -23.850447     -2290.0548      53.129975      145.69855    
Loop time of 2724.7 on 8 procs for 200000 steps with 2112 atoms

Performance: 3.171 ns/day, 7.569 hours/ns, 73.402 timesteps/s, 155.026 katom-step/s
48.8% CPU use with 8 MPI tasks x 1 OpenMP threads

MPI task timing breakdown:
Section |  min time  |  avg time  |  max time  |%varavg| %total
---------------------------------------------------------------
Pair    | 101.96     | 103.29     | 104.95     |   8.8 |  3.79
Neigh   | 0.23894    | 0.25059    | 0.26133    |   1.6 |  0.01
Comm    | 738.42     | 741.26     | 743.89     |   5.6 | 27.21
Output  | 0.10458    | 0.10821    | 0.11157    |   0.7 |  0.00
Modify  | 1497.4     | 1504.8     | 1509.6     |   9.9 | 55.23
Other   |            | 375        |            |       | 13.76

Nlocal:            264 ave         272 max         254 min
Histogram: 1 0 1 1 0 1 1 1 0 2
Nghost:          181.5 ave         184 max         178 min
Histogram: 1 1 0 1 0 0 2 0 1 2
Neighs:              0 ave           0 max           0 min
Histogram: 8 0 0 0 0 0 0 0 0 0
FullNghs:         4220 ave        4352 max        4056 min
Histogram: 1 0 1 1 0 1 1 1 0 2

Total # of neighbors = 33760
Ave neighs/atom = 15.984848
Neighbor list builds = 640
Dangerous builds = 0
unfix           f1

fix             f2 mobile nvt temp 300.0 300.0 0.05
run             200000                  # 100 ps NVT
Per MPI rank memory allocation (min/avg/max) = 3.087 | 3.087 | 3.087 Mbytes
   Step          Temp          Press          PotEng           Lx             Ly      
    200000   304.90411     -23.850447     -2290.0548      53.129975      145.69855    
    210000   275.24058      114.35429     -2295.2854      53.129975      145.69855    
    220000   285.75209     -168.90161     -2297.1957      53.129975      145.69855    
    230000   278.97204     -214.88436     -2297.2599      53.129975      145.69855    
    240000   275.43634     -371.38319     -2299.6156      53.129975      145.69855    
    250000   283.60078     -129.88829     -2297.3488      53.129975      145.69855    
    260000   280.66229     -244.36862     -2298.7047      53.129975      145.69855    
    270000   275.04627     -165.92911     -2296.7661      53.129975      145.69855    
    280000   278.70266      2.5948342     -2301.0746      53.129975      145.69855    
    290000   271.67584     -191.45455     -2297.4373      53.129975      145.69855    
    300000   275.17143      2.4919564     -2297.1327      53.129975      145.69855    
    310000   276.74502     -0.88759587    -2296.9123      53.129975      145.69855    
    320000   262.92522     -316.14781     -2300.1377      53.129975      145.69855    
    330000   276.92734     -104.51923     -2298.6291      53.129975      145.69855    
    340000   281.73822      148.73389     -2295.6391      53.129975      145.69855    
    350000   282.59237     -97.752977     -2299.0258      53.129975      145.69855    
    360000   278.97686     -93.531674     -2298.2546      53.129975      145.69855    
    370000   275.17168     -34.931463     -2296.3956      53.129975      145.69855    
    380000   275.20664      131.1876      -2298.9391      53.129975      145.69855    
    390000   273.71948     -297.20154     -2296.6448      53.129975      145.69855    
    400000   279.13806     -135.60174     -2299.2293      53.129975      145.69855    
Loop time of 177.039 on 8 procs for 200000 steps with 2112 atoms

Performance: 48.803 ns/day, 0.492 hours/ns, 1129.696 timesteps/s, 2.386 Matom-step/s
98.1% CPU use with 8 MPI tasks x 1 OpenMP threads

MPI task timing breakdown:
Section |  min time  |  avg time  |  max time  |%varavg| %total
---------------------------------------------------------------
Pair    | 96.25      | 98.651     | 104.13     |  24.8 | 55.72
Neigh   | 0.11459    | 0.11981    | 0.12341    |   1.0 |  0.07
Comm    | 58.385     | 64.827     | 68.84      |  36.1 | 36.62
Output  | 0.001423   | 0.0014475  | 0.001513   |   0.1 |  0.00
Modify  | 8.9113     | 10.757     | 11.805     |  33.0 |  6.08
Other   |            | 2.682      |            |       |  1.52

Nlocal:            264 ave         273 max         256 min
Histogram: 2 1 1 0 0 0 1 1 1 1
Nghost:         179.75 ave         192 max         171 min
Histogram: 2 0 1 1 1 2 0 0 0 1
Neighs:              0 ave           0 max           0 min
Histogram: 8 0 0 0 0 0 0 0 0 0
FullNghs:      4218.75 ave        4368 max        4080 min
Histogram: 2 0 1 1 0 0 1 1 1 1

Total # of neighbors = 33750
Ave neighs/atom = 15.980114
Neighbor list builds = 253
Dangerous builds = 0
unfix           f2
reset_timestep  0

# ---------------- NEMD production -----------------------------------------
fix             f3 mobile nve
fix             fhot  gHOT  langevin 320.0 320.0 0.1 ${seed} tally yes
fix             fhot  gHOT  langevin 320.0 320.0 0.1 1 tally yes
fix             fcold gCOLD langevin 280.0 280.0 0.1 ${seed} tally yes
fix             fcold gCOLD langevin 280.0 280.0 0.1 1 tally yes

compute         ke all ke/atom
variable        tatom atom c_ke/(1.5*8.617333262e-5)

# 40 bins along x.  units reduced -> 3rd arg is the bin WIDTH fraction.
variable        nbins equal 40
variable        binw  equal 1.0/${nbins}
variable        binw  equal 1.0/40
compute         cc mobile chunk/atom bin/1d y lower ${binw} units reduced
compute         cc mobile chunk/atom bin/1d y lower 0.025 units reduced
fix             fp mobile ave/chunk 200 2000 400000 cc v_tatom file T_profile.dat

variable        tps equal step*dt
variable        eh  equal f_fhot
variable        ec  equal f_fcold
fix             fm all print 20000 "${tps} ${eh} ${ec}" file ebath.dat                 title "t_ps E_hot_eV E_cold_eV" screen no

thermo          40000
thermo_style    custom step temp f_fhot f_fcold
run             4000000                 # 2 ns production
Per MPI rank memory allocation (min/avg/max) = 4.712 | 4.712 | 4.712 Mbytes
   Step          Temp          f_fhot        f_fcold    
         0   279.13806     -0             -0            
     40000   273.01421     -5.2009074      3.4948245    
     80000   278.95012     -9.6878379      8.3448741    
    120000   274.09281     -16.206637      14.912015    
    160000   274.43045     -24.218733      23.392697    
    200000   271.08885     -30.440234      29.976728    
    240000   275.01233     -35.628309      37.187231    
    280000   275.92491     -43.460516      42.16625     
    320000   274.55498     -46.969014      45.097067    
    360000   270.18329     -53.436946      53.785454    
    400000   279.0529      -59.645094      58.79013     
    440000   280.68132     -63.462696      60.677713    
    480000   275.00337     -68.615465      70.348918    
    520000   269.58578     -73.604876      76.536014    
    560000   277.58503     -81.756196      82.223646    
    600000   277.72947     -86.816847      86.168609    
    640000   276.39767     -93.163139      93.965218    
    680000   274.04257     -99.92831       97.96809     
    720000   268.96753     -109.74066      109.17811    
    760000   274.90216     -117.16986      118.1452     
    800000   269.10877     -124.77244      125.97173    
    840000   270.78932     -128.67471      130.62689    
    880000   272.23989     -134.08839      132.5024     
    920000   282.12055     -139.48467      136.07322    
    960000   274.77183     -145.11129      142.53473    
   1000000   283.82524     -150.68773      148.00754    
   1040000   283.19442     -157.03449      152.6991     
   1080000   276.48166     -162.62215      161.2871     
   1120000   273.29985     -170.55014      171.24147    
   1160000   285.10085     -175.99862      174.92715    
   1200000   273.56105     -180.44022      180.7127     
   1240000   282.46976     -189.55824      186.92025    
   1280000   281.20956     -193.45519      193.13103    
   1320000   281.78454     -201.42179      197.82393    
   1360000   286.03394     -205.11692      200.88018    
   1400000   282.57377     -211.18809      207.07165    
   1440000   277.63887     -214.01937      213.19487    
   1480000   272.7303      -222.99175      221.98064    
   1520000   277.9307      -229.40724      227.89513    
   1560000   269.58146     -235.56139      238.27749    
   1600000   279.38996     -244.36324      245.53281    
   1640000   275.72936     -250.46134      250.83832    
   1680000   273.74464     -254.50618      255.39506    
   1720000   279.6604      -261.71017      258.75739    
   1760000   278.99562     -271.66482      268.44838    
   1800000   277.70877     -276.07834      273.64935    
   1840000   271.11354     -278.90682      278.93759    
   1880000   264.39613     -285.43403      285.86087    
   1920000   273.47471     -291.37817      289.73795    
   1960000   270.54735     -295.07627      296.64854    
   2000000   273.21385     -300.18304      301.08942    
   2040000   274.52553     -303.81063      305.61213    
   2080000   277.41467     -311.39188      311.72019    
   2120000   273.6395      -317.24334      314.72989    
   2160000   273.49943     -320.27343      321.72438    
   2200000   270.43844     -323.84976      325.14565    
   2240000   269.5196      -330.84498      331.15807    
   2280000   271.91304     -337.9455       337.83122    
   2320000   279.04317     -345.66292      346.16458    
   2360000   281.36679     -354.42971      353.16046    
   2400000   286.11315     -360.56491      358.04232    
   2440000   266.5879      -364.18589      365.93408    
   2480000   280.37499     -369.34082      367.51201    
   2520000   273.0878      -374.4682       376.32068    
   2560000   275.56877     -383.08572      382.27559    
   2600000   278.77501     -386.67465      384.95153    
   2640000   282.89782     -393.14295      389.14051    
   2680000   278.16134     -401.54306      397.30209    
   2720000   275.40285     -403.05278      403.10993    
   2760000   281.91916     -408.8334       408.38263    
   2800000   275.26295     -413.67073      413.30008    
   2840000   272.5753      -419.42453      418.62265    
   2880000   274.57336     -422.80651      425.12374    
   2920000   275.76363     -430.23162      428.46677    
   2960000   282.89071     -437.88431      435.60828    
   3000000   273.9283      -441.78115      441.57425    
   3040000   274.9009      -445.75995      445.60765    
   3080000   276.38663     -451.13876      451.52611    
   3120000   267.07059     -456.11012      457.23639    
   3160000   275.39072     -465.07602      462.99683    
   3200000   272.87636     -468.21508      469.48745    
   3240000   279.50761     -475.28275      470.95633    
   3280000   290.06889     -482.8256       477.96533    
   3320000   279.98061     -486.76728      483.90907    
   3360000   277.2392      -493.38574      492.67476    
   3400000   282.34973     -499.50419      498.86442    
   3440000   279.32138     -507.82222      506.17542    
   3480000   275.33451     -512.52676      509.95088    
   3520000   276.99043     -519.92114      517.71129    
   3560000   280.79201     -528.47384      524.79808    
   3600000   281.74881     -534.81736      530.70907    
   3640000   270.90047     -539.75703      538.7431     
   3680000   282.69195     -549.14953      545.33854    
   3720000   273.4455      -552.9905       555.03403    
   3760000   276.88342     -562.20117      559.69473    
   3800000   279.95887     -567.02437      565.75627    
   3840000   279.06729     -573.48667      571.58642    
   3880000   280.6073      -575.90218      573.96552    
   3920000   277.20601     -583.43186      582.59689    
   3960000   277.99874     -588.49779      588.12318    
   4000000   279.16165     -593.32193      589.98637    
Loop time of 2065.68 on 8 procs for 4000000 steps with 2112 atoms

Performance: 83.653 ns/day, 0.287 hours/ns, 1936.412 timesteps/s, 4.090 Matom-step/s
97.4% CPU use with 8 MPI tasks x 1 OpenMP threads

MPI task timing breakdown:
Section |  min time  |  avg time  |  max time  |%varavg| %total
---------------------------------------------------------------
Pair    | 1176.1     | 1198.7     | 1217.3     |  45.5 | 58.03
Neigh   | 1.0802     | 1.1316     | 1.1744     |   3.1 |  0.05
Comm    | 686.79     | 710.84     | 735.79     |  70.3 | 34.41
Output  | 0.00501    | 0.015516   | 0.017105   |   3.2 |  0.00
Modify  | 21.436     | 34.614     | 48.115     | 215.3 |  1.68
Other   |            | 120.3      |            |       |  5.83

Nlocal:            264 ave         273 max         260 min
Histogram: 3 1 0 2 0 0 1 0 0 1
Nghost:         173.25 ave         183 max         167 min
Histogram: 1 3 0 1 1 0 0 0 1 1
Neighs:              0 ave           0 max           0 min
Histogram: 8 0 0 0 0 0 0 0 0 0
FullNghs:      4219.75 ave        4365 max        4154 min
Histogram: 3 1 0 2 0 0 1 0 0 1

Total # of neighbors = 33758
Ave neighs/atom = 15.983902
Neighbor list builds = 3694
Dangerous builds = 0

print "DONE armchair  ${infile}"
DONE armchair  bp_ac_W16_L33.data
Total wall time: 1:22:47
