LAMMPS (4 Jul 2026)
OMP_NUM_THREADS environment is not set. Defaulting to 1 thread.
  using 1 OpenMP thread(s) per MPI task
Loaded 1 plugins from C:\Users\User\AppData\Local\LAMMPS 64-bit 4Jul2026-MSMPI with Python\plugins
# ===========================================================================
#  BP VALIDATION - ARMCHAIR transport (heat flows along Y)
#  Method: Langevin two-bath NEMD (same method as Song et al. ZnO/hBN papers)
#  Everything is written EXPLICITLY - no runtime branching.
#
#  Run:  lmp -in in.bp_armchair -var infile bp_ac_W16_L50.data -var seed 11111
# ===========================================================================
units           metal
dimension       3
boundary        p p p
atom_style      atomic

read_data       ${infile}
read_data       bp_ac_W16_L66.data
Reading data file ...
  orthogonal box = (0 0 0) to (52.736 299.904 32.104598)
  1 by 8 by 1 MPI processor grid
  reading atoms ...
  4224 atoms
  read_data CPU = 0.066 seconds

pair_style      sw
pair_coeff      * * bp.sw B T          # type1 -> B (bottom), type2 -> T (top)

neighbor        2.0 bin
neigh_modify    delay 0 every 1 check yes
timestep        0.0005                  # 0.5 fs

# ---------------- slab geometry along Y -----------------------------------
variable        xL      equal ylo
variable        xH      equal yhi
variable        wall    equal 6.0       # fixed wall thickness (A)
variable        bath    equal 12.0      # reservoir thickness (A)
variable        x1      equal ${xL}+${wall}
variable        x1      equal 0+${wall}
variable        x1      equal 0+6
variable        x2      equal ${x1}+${bath}
variable        x2      equal 6+${bath}
variable        x2      equal 6+12
variable        x4      equal ${xH}-${wall}
variable        x4      equal 299.904-${wall}
variable        x4      equal 299.904-6
variable        x3      equal ${x4}-${bath}
variable        x3      equal 293.904-${bath}
variable        x3      equal 293.904-12

region          rWL   block INF INF ${xL} ${x1} INF INF units box
region          rWL   block INF INF 0 ${x1} INF INF units box
region          rWL   block INF INF 0 6 INF INF units box
region          rWH   block INF INF ${x4} ${xH} INF INF units box
region          rWH   block INF INF 293.904 ${xH} INF INF units box
region          rWH   block INF INF 293.904 299.904 INF INF units box
region          rHOT  block INF INF ${x1} ${x2} INF INF units box
region          rHOT  block INF INF 6 ${x2} INF INF units box
region          rHOT  block INF INF 6 18 INF INF units box
region          rCOLD block INF INF ${x3} ${x4} INF INF units box
region          rCOLD block INF INF 281.904 ${x4} INF INF units box
region          rCOLD block INF INF 281.904 293.904 INF INF units box

group           gWL   region rWL
80 atoms in group gWL
group           gWH   region rWH
80 atoms in group gWH
group           walls union gWL gWH
160 atoms in group walls
group           gHOT  region rHOT
176 atoms in group gHOT
group           gCOLD region rCOLD
160 atoms in group gCOLD
group           mobile subtract all walls
4064 atoms in group mobile

# ---------------- equilibration -------------------------------------------
velocity        all    create 300.0 ${seed} mom yes rot yes dist gaussian
velocity        all    create 300.0 1 mom yes rot yes dist gaussian
velocity        walls  set 0.0 0.0 0.0
fix             fw walls setforce 0.0 0.0 0.0

fix             f1 mobile npt temp 300.0 300.0 0.05 x 0.0 0.0 0.5 y 0.0 0.0 0.5 couple none
thermo          10000
thermo_style    custom step temp press pe lx ly
run             200000                  # 100 ps NPT
Neighbor list info ...
  update: every = 1 steps, delay = 0 steps, check = yes
  max neighbors/atom: 2000, page size: 100000
  master list distance cutoff = 4.7911
  ghost atom cutoff = 4.7911
  binsize = 2.39555, bins = 23 126 14
  1 neighbor lists, perpetual/occasional/extra = 1 0 0
  (1) pair sw, perpetual
      attributes: full, newton on
      pair build: full/bin/atomonly
      stencil: full/bin/3d
      bin: standard
Per MPI rank memory allocation (min/avg/max) = 3.107 | 3.108 | 3.109 Mbytes
   Step          Temp          Press          PotEng           Lx             Ly      
         0   288.67158     -427.4688      -4735.0001      52.736         299.904      
     10000   298.43908     -14.097639     -4581.7867      53.147181      289.33038    
     20000   298.30281     -3.5699873     -4580.799       53.141178      288.55916    
     30000   295.81957      64.13217      -4583.8803      53.11269       288.91445    
     40000   293.56642      33.381863     -4583.1748      53.13305       289.02827    
     50000   299.14898     -180.25446     -4585.4499      53.237067      288.82713    
     60000   299.83649     -24.477923     -4580.0562      53.186492      288.68209    
     70000   297.28877      12.061369     -4583.714       53.148896      288.97052    
     80000   305.236       -148.97072     -4585.2672      53.160734      289.06359    
     90000   305.41906     -78.860982     -4589.1806      53.161126      288.7266     
    100000   295.68361      83.555298     -4580.7096      53.122357      289.37119    
    110000   297.41717      54.702426     -4584.296       53.12471       289.31954    
    120000   300.52231      49.825522     -4582.523       53.096005      288.61903    
    130000   302.01052      86.497514     -4583.3899      53.148929      288.58988    
    140000   299.05479      40.375584     -4584.949       53.140895      288.99113    
    150000   296.04644     -85.692023     -4582.9212      53.136852      288.47351    
    160000   300.16187     -80.444053     -4582.2372      53.163136      288.65398    
    170000   296.26949     -44.183266     -4580.8648      53.170572      288.48487    
    180000   304.56905     -192.01662     -4582.7008      53.131838      289.38766    
    190000   302.71711     -4.1551357     -4585.0858      53.123551      289.41199    
    200000   298.10496      146.91114     -4582.1568      53.091899      288.98866    
Loop time of 401.779 on 8 procs for 200000 steps with 4224 atoms

Performance: 21.504 ns/day, 1.116 hours/ns, 497.786 timesteps/s, 2.103 Matom-step/s
64.8% CPU use with 8 MPI tasks x 1 OpenMP threads

MPI task timing breakdown:
Section |  min time  |  avg time  |  max time  |%varavg| %total
---------------------------------------------------------------
Pair    | 82.451     | 87.331     | 91.163     |  24.3 | 21.74
Neigh   | 0.29849    | 0.31031    | 0.32052    |   1.5 |  0.08
Comm    | 67.781     | 71.81      | 77.074     |  34.4 | 17.87
Output  | 0.008605   | 0.0086821  | 0.008805   |   0.1 |  0.00
Modify  | 193.52     | 196.61     | 198.76     |  10.3 | 48.93
Other   |            | 45.71      |            |       | 11.38

Nlocal:            528 ave         544 max         512 min
Histogram: 3 0 0 0 0 1 0 2 0 2
Nghost:        254.625 ave         273 max         239 min
Histogram: 1 2 1 0 1 0 0 1 0 2
Neighs:              0 ave           0 max           0 min
Histogram: 8 0 0 0 0 0 0 0 0 0
FullNghs:         8445 ave        8696 max        8192 min
Histogram: 3 0 0 0 0 1 0 2 0 2

Total # of neighbors = 67560
Ave neighs/atom = 15.994318
Neighbor list builds = 816
Dangerous builds = 0
unfix           f1

fix             f2 mobile nvt temp 300.0 300.0 0.05
run             200000                  # 100 ps NVT
Per MPI rank memory allocation (min/avg/max) = 3.107 | 3.108 | 3.109 Mbytes
   Step          Temp          Press          PotEng           Lx             Ly      
    200000   298.10496      146.91114     -4582.1568      53.091899      288.98866    
    210000   289.55639     -34.014113     -4591.0911      53.091899      288.98866    
    220000   280.2786       56.574208     -4588.842       53.091899      288.98866    
    230000   288.6953       66.842307     -4589.7143      53.091899      288.98866    
    240000   288.06069      97.802757     -4587.262       53.091899      288.98866    
    250000   284.53071      102.73084     -4586.6344      53.091899      288.98866    
    260000   288.56807     -85.397942     -4588.7459      53.091899      288.98866    
    270000   287.52498      58.092859     -4591.9033      53.091899      288.98866    
    280000   292.45487      259.69465     -4590.6972      53.091899      288.98866    
    290000   286.86938      25.584364     -4591.5636      53.091899      288.98866    
    300000   285.01806      131.96882     -4586.9965      53.091899      288.98866    
    310000   286.57858      14.675695     -4588.4768      53.091899      288.98866    
    320000   285.30576      6.5926837     -4590.5989      53.091899      288.98866    
    330000   292.73678      134.27646     -4590.2501      53.091899      288.98866    
    340000   293.50076      138.25947     -4589.7969      53.091899      288.98866    
    350000   289.77948     -167.61156     -4587.5978      53.091899      288.98866    
    360000   281.70562      86.512153     -4589.2421      53.091899      288.98866    
    370000   290.57741     -5.2192701     -4587.0175      53.091899      288.98866    
    380000   285.60141     -62.911224     -4588.2663      53.091899      288.98866    
    390000   294.14502      14.850776     -4591.693       53.091899      288.98866    
    400000   296.52002      249.13997     -4589.3516      53.091899      288.98866    
Loop time of 124.676 on 8 procs for 200000 steps with 4224 atoms

Performance: 69.300 ns/day, 0.346 hours/ns, 1604.163 timesteps/s, 6.776 Matom-step/s
98.7% CPU use with 8 MPI tasks x 1 OpenMP threads

MPI task timing breakdown:
Section |  min time  |  avg time  |  max time  |%varavg| %total
---------------------------------------------------------------
Pair    | 74.813     | 78.48      | 81.217     |  23.9 | 62.95
Neigh   | 0.11491    | 0.11985    | 0.12612    |   0.9 |  0.10
Comm    | 18.261     | 22.937     | 26.909     |  61.0 | 18.40
Output  | 0.000649   | 0.00066138 | 0.00071    |   0.0 |  0.00
Modify  | 20.235     | 21.902     | 24.746     |  28.7 | 17.57
Other   |            | 1.236      |            |       |  0.99

Nlocal:            528 ave         544 max         512 min
Histogram: 2 0 0 1 0 2 0 1 0 2
Nghost:            251 ave         265 max         235 min
Histogram: 1 0 1 0 2 0 1 1 1 1
Neighs:              0 ave           0 max           0 min
Histogram: 8 0 0 0 0 0 0 0 0 0
FullNghs:      8441.25 ave        8703 max        8178 min
Histogram: 2 0 0 1 1 1 0 1 0 2

Total # of neighbors = 67530
Ave neighs/atom = 15.987216
Neighbor list builds = 304
Dangerous builds = 0
unfix           f2
reset_timestep  0

# ---------------- NEMD production -----------------------------------------
fix             f3 mobile nve
fix             fhot  gHOT  langevin 320.0 320.0 0.1 ${seed} tally yes
fix             fhot  gHOT  langevin 320.0 320.0 0.1 1 tally yes
fix             fcold gCOLD langevin 280.0 280.0 0.1 ${seed} tally yes
fix             fcold gCOLD langevin 280.0 280.0 0.1 1 tally yes

compute         ke all ke/atom
variable        tatom atom c_ke/(1.5*8.617333262e-5)

# 40 bins along x.  units reduced -> 3rd arg is the bin WIDTH fraction.
variable        nbins equal 40
variable        binw  equal 1.0/${nbins}
variable        binw  equal 1.0/40
compute         cc mobile chunk/atom bin/1d y lower ${binw} units reduced
compute         cc mobile chunk/atom bin/1d y lower 0.025 units reduced
fix             fp mobile ave/chunk 200 2000 400000 cc v_tatom file T_profile.dat

variable        tps equal step*dt
variable        eh  equal f_fhot
variable        ec  equal f_fcold
fix             fm all print 20000 "${tps} ${eh} ${ec}" file ebath.dat                 title "t_ps E_hot_eV E_cold_eV" screen no

thermo          40000
thermo_style    custom step temp f_fhot f_fcold
run             4000000                 # 2 ns production
Per MPI rank memory allocation (min/avg/max) = 4.732 | 4.734 | 4.734 Mbytes
   Step          Temp          f_fhot        f_fcold    
         0   296.52002     -0             -0            
     40000   292.42641     -7.6270627      8.9380488    
     80000   291.85456     -10.197611      14.50006     
    120000   289.58446     -12.845586      17.69977     
    160000   288.54502     -19.910712      22.323414    
    200000   297.68936     -25.83553       25.376421    
    240000   297.87504     -30.505432      30.935247    
    280000   295.11629     -35.913152      35.243254    
    320000   290.52976     -36.691125      38.475242    
    360000   289.25093     -40.878097      42.988166    
    400000   291.1644      -42.629857      45.101451    
    440000   285.11905     -44.696547      51.25622     
    480000   289.01151     -49.707049      54.633595    
    520000   293.33158     -53.956764      58.63426     
    560000   284.58006     -56.665591      63.803906    
    600000   288.15824     -62.702929      70.175124    
    640000   285.3244      -66.613248      74.735407    
    680000   284.55208     -70.057126      77.258598    
    720000   283.45148     -76.212896      83.804284    
    760000   288.78508     -81.534996      88.129278    
    800000   292.47073     -88.091674      90.49899     
    840000   288.39037     -91.390289      91.577579    
    880000   292.14308     -95.696175      97.135699    
    920000   291.36188     -98.187632      97.854045    
    960000   290.72103     -106.06902      104.43631    
   1000000   291.95622     -107.30378      112.49097    
   1040000   289.65734     -113.68914      115.83382    
   1080000   293.80296     -116.54669      119.36743    
   1120000   288.5018      -122.39339      126.69912    
   1160000   286.98223     -126.16776      132.97749    
   1200000   289.36029     -135.80001      135.91488    
   1240000   290.05545     -139.81374      141.87271    
   1280000   289.70728     -143.71817      146.88613    
   1320000   290.95117     -145.63924      150.97787    
   1360000   288.51799     -147.68165      152.67969    
   1400000   289.92331     -153.16904      154.93449    
   1440000   283.32126     -155.26308      161.7951     
   1480000   286.22045     -158.56549      165.76       
   1520000   288.87928     -164.8214       170.77165    
   1560000   289.49251     -171.31976      175.44002    
   1600000   293.06756     -177.93047      181.39879    
   1640000   287.60261     -183.99191      187.7093     
   1680000   289.65899     -189.13294      195.03845    
   1720000   291.08973     -195.87189      200.37561    
   1760000   286.97698     -198.63324      204.63143    
   1800000   283.70259     -200.33863      210.51293    
   1840000   289.06986     -207.57439      215.85094    
   1880000   289.5927      -213.07444      219.32509    
   1920000   290.0272      -220.81548      222.86222    
   1960000   296.14259     -225.82684      225.27785    
   2000000   290.40032     -231.76943      233.14031    
   2040000   292.80981     -240.55624      240.41312    
   2080000   297.34315     -245.20199      245.10131    
   2120000   294.85342     -251.1756       250.24138    
   2160000   294.20897     -254.71139      253.32114    
   2200000   294.44787     -260.90194      258.97981    
   2240000   295.7598      -263.36181      266.22457    
   2280000   294.23337     -269.84761      270.96798    
   2320000   286.80347     -270.48474      275.54675    
   2360000   285.24843     -274.05204      280.62246    
   2400000   280.64838     -274.78775      286.27904    
   2440000   282.51919     -280.55645      291.80849    
   2480000   288.97306     -285.19584      296.09485    
   2520000   282.43607     -289.40339      298.40934    
   2560000   290.97204     -296.47255      302.93873    
   2600000   288.98166     -302.63703      310.05711    
   2640000   292.5202      -309.95542      311.43712    
   2680000   295.43182     -315.44648      314.43414    
   2720000   286.21635     -318.34896      319.45222    
   2760000   295.33977     -322.54239      322.20427    
   2800000   292.84781     -327.03978      325.86161    
   2840000   294.10661     -331.79883      327.3122     
   2880000   283.50845     -334.80556      337.43966    
   2920000   288.11617     -339.67324      341.06661    
   2960000   284.98011     -342.50892      346.33563    
   3000000   287.30293     -346.92898      353.08725    
   3040000   288.02317     -351.05314      357.09191    
   3080000   290.53439     -352.949        362.02021    
   3120000   282.51231     -358.46991      365.29806    
   3160000   287.87811     -365.06656      371.11073    
   3200000   283.0754      -369.06924      374.3543     
   3240000   287.22492     -375.2548       378.26492    
   3280000   287.98566     -379.95645      385.10078    
   3320000   290.97483     -387.2345       391.58211    
   3360000   289.08126     -392.40537      396.31333    
   3400000   286.95975     -396.14287      400.94364    
   3440000   287.52497     -400.52654      404.66254    
   3480000   293.19674     -405.3151       408.11817    
   3520000   284.4852      -407.23528      415.34113    
   3560000   287.74073     -413.50312      418.98423    
   3600000   283.913       -416.9922       425.34532    
   3640000   288.5008      -420.68292      428.67211    
   3680000   286.29625     -426.09691      433.39708    
   3720000   283.28392     -432.03052      440.45332    
   3760000   285.41699     -436.40165      443.55323    
   3800000   288.27422     -442.19516      447.34878    
   3840000   288.11866     -447.42603      450.2619     
   3880000   288.15597     -450.62361      455.58942    
   3920000   286.99715     -455.07202      458.91331    
   3960000   287.69698     -458.0769       462.30146    
   4000000   290.24447     -459.6758       464.759      
Loop time of 2738.71 on 8 procs for 4000000 steps with 4224 atoms

Performance: 63.095 ns/day, 0.380 hours/ns, 1460.542 timesteps/s, 6.169 Matom-step/s
95.2% CPU use with 8 MPI tasks x 1 OpenMP threads

MPI task timing breakdown:
Section |  min time  |  avg time  |  max time  |%varavg| %total
---------------------------------------------------------------
Pair    | 1612       | 1646.4     | 1686       |  64.8 | 60.12
Neigh   | 1.6484     | 1.7125     | 1.7634     |   3.8 |  0.06
Comm    | 604.94     | 646.53     | 693.51     | 134.7 | 23.61
Output  | 0.003103   | 0.0065145  | 0.007072   |   1.6 |  0.00
Modify  | 25.107     | 33.595     | 58.188     | 236.1 |  1.23
Other   |            | 410.4      |            |       | 14.99

Nlocal:            528 ave         534 max         522 min
Histogram: 1 0 0 0 1 5 0 0 0 1
Nghost:        245.125 ave         251 max         234 min
Histogram: 1 0 0 0 1 2 0 0 2 2
Neighs:              0 ave           0 max           0 min
Histogram: 8 0 0 0 0 0 0 0 0 0
FullNghs:       8444.5 ave        8544 max        8350 min
Histogram: 1 0 0 0 3 3 0 0 0 1

Total # of neighbors = 67556
Ave neighs/atom = 15.993371
Neighbor list builds = 4564
Dangerous builds = 0

print "DONE armchair  ${infile}"
DONE armchair  bp_ac_W16_L66.data
Total wall time: 0:54:25
