LAMMPS (4 Jul 2026)
OMP_NUM_THREADS environment is not set. Defaulting to 1 thread.
  using 1 OpenMP thread(s) per MPI task
Loaded 1 plugins from C:\Users\User\AppData\Local\LAMMPS 64-bit 4Jul2026-MSMPI with Python\plugins
# ===========================================================================
#  BP VALIDATION - ARMCHAIR transport (heat flows along Y)
#  Method: Langevin two-bath NEMD (same method as Song et al. ZnO/hBN papers)
#  Everything is written EXPLICITLY - no runtime branching.
#
#  Run:  lmp -in in.bp_armchair -var infile bp_ac_W16_L50.data -var seed 11111
# ===========================================================================
units           metal
dimension       3
boundary        p p p
atom_style      atomic

read_data       ${infile}
read_data       bp_ac_W16_L50.data
Reading data file ...
  orthogonal box = (0 0 0) to (52.736 227.2 32.104598)
  1 by 8 by 1 MPI processor grid
  reading atoms ...
  3200 atoms
  read_data CPU = 0.033 seconds

pair_style      sw
pair_coeff      * * bp.sw B T          # type1 -> B (bottom), type2 -> T (top)

neighbor        2.0 bin
neigh_modify    delay 0 every 1 check yes
timestep        0.0005                  # 0.5 fs

# ---------------- slab geometry along Y -----------------------------------
variable        xL      equal ylo
variable        xH      equal yhi
variable        wall    equal 6.0       # fixed wall thickness (A)
variable        bath    equal 12.0      # reservoir thickness (A)
variable        x1      equal ${xL}+${wall}
variable        x1      equal 0+${wall}
variable        x1      equal 0+6
variable        x2      equal ${x1}+${bath}
variable        x2      equal 6+${bath}
variable        x2      equal 6+12
variable        x4      equal ${xH}-${wall}
variable        x4      equal 227.2-${wall}
variable        x4      equal 227.2-6
variable        x3      equal ${x4}-${bath}
variable        x3      equal 221.2-${bath}
variable        x3      equal 221.2-12

region          rWL   block INF INF ${xL} ${x1} INF INF units box
region          rWL   block INF INF 0 ${x1} INF INF units box
region          rWL   block INF INF 0 6 INF INF units box
region          rWH   block INF INF ${x4} ${xH} INF INF units box
region          rWH   block INF INF 221.2 ${xH} INF INF units box
region          rWH   block INF INF 221.2 227.2 INF INF units box
region          rHOT  block INF INF ${x1} ${x2} INF INF units box
region          rHOT  block INF INF 6 ${x2} INF INF units box
region          rHOT  block INF INF 6 18 INF INF units box
region          rCOLD block INF INF ${x3} ${x4} INF INF units box
region          rCOLD block INF INF 209.2 ${x4} INF INF units box
region          rCOLD block INF INF 209.2 221.2 INF INF units box

group           gWL   region rWL
80 atoms in group gWL
group           gWH   region rWH
80 atoms in group gWH
group           walls union gWL gWH
160 atoms in group walls
group           gHOT  region rHOT
176 atoms in group gHOT
group           gCOLD region rCOLD
160 atoms in group gCOLD
group           mobile subtract all walls
3040 atoms in group mobile

# ---------------- equilibration -------------------------------------------
velocity        all    create 300.0 ${seed} mom yes rot yes dist gaussian
velocity        all    create 300.0 1 mom yes rot yes dist gaussian
velocity        walls  set 0.0 0.0 0.0
fix             fw walls setforce 0.0 0.0 0.0

fix             f1 mobile npt temp 300.0 300.0 0.05 x 0.0 0.0 0.5 y 0.0 0.0 0.5 couple none
thermo          10000
thermo_style    custom step temp press pe lx ly
run             200000                  # 100 ps NPT
Neighbor list info ...
  update: every = 1 steps, delay = 0 steps, check = yes
  max neighbors/atom: 2000, page size: 100000
  master list distance cutoff = 4.7911
  ghost atom cutoff = 4.7911
  binsize = 2.39555, bins = 23 95 14
  1 neighbor lists, perpetual/occasional/extra = 1 0 0
  (1) pair sw, perpetual
      attributes: full, newton on
      pair build: full/bin/atomonly
      stencil: full/bin/3d
      bin: standard
Per MPI rank memory allocation (min/avg/max) = 3.097 | 3.099 | 3.1 Mbytes
   Step          Temp          Press          PotEng           Lx             Ly      
         0   285.23871     -431.43552     -3587.1213      52.736         227.2        
     10000   300.95617      60.874487     -3474.2462      53.164947      219.12665    
     20000   301.74349      155.4911      -3470.8212      53.124445      218.99325    
     30000   297.4671       110.68202     -3472.5396      53.139403      218.9496     
     40000   305.46242      122.09885     -3469.6826      53.207224      219.58168    
     50000   305.58346      25.01498      -3475.7317      53.172083      219.1835     
     60000   296.61619     -141.33051     -3471.6478      53.170859      219.11484    
     70000   297.89814     -177.35639     -3472.3772      53.175393      219.07451    
     80000   295.83784      135.28503     -3471.5767      53.130313      219.42716    
     90000   295.66887      64.534525     -3472.6539      53.151982      219.28612    
    100000   295.34735      55.6495       -3472.5839      53.109159      219.0498     
    110000   302.44553     -107.87816     -3472.6589      53.157169      219.1963     
    120000   299.83411      22.009477     -3471.7753      53.12279       218.79687    
    130000   304.66292      229.78207     -3470.0602      53.07188       219.19009    
    140000   297.35243     -27.424498     -3470.184       53.164632      219.04935    
    150000   296.20081     -228.53943     -3472.151       53.177839      219.19445    
    160000   298.62574     -106.03824     -3475.464       53.133956      219.87328    
    170000   305.58792     -3.2666581     -3470.5945      53.160079      219.53734    
    180000   297.10119     -28.874274     -3470.4579      53.186613      219.01074    
    190000   297.24531      1.8373338     -3474.3965      53.151908      219.15082    
    200000   299.85442     -186.1471      -3470.2821      53.208187      219.2843     
Loop time of 1483.2 on 8 procs for 200000 steps with 3200 atoms

Performance: 5.825 ns/day, 4.120 hours/ns, 134.844 timesteps/s, 431.500 katom-step/s
49.9% CPU use with 8 MPI tasks x 1 OpenMP threads

MPI task timing breakdown:
Section |  min time  |  avg time  |  max time  |%varavg| %total
---------------------------------------------------------------
Pair    | 75.422     | 76.688     | 77.676     |   8.8 |  5.17
Neigh   | 0.21527    | 0.22412    | 0.23247    |   1.2 |  0.02
Comm    | 247.73     | 250.23     | 252.08     |   8.5 | 16.87
Output  | 0.058808   | 0.064478   | 0.066535   |   0.9 |  0.00
Modify  | 911.41     | 915.14     | 918.33     |   6.9 | 61.70
Other   |            | 240.8      |            |       | 16.24

Nlocal:            400 ave         404 max         396 min
Histogram: 1 0 0 0 0 6 0 0 0 1
Nghost:        229.375 ave         238 max         212 min
Histogram: 1 0 0 0 0 1 3 0 1 2
Neighs:              0 ave           0 max           0 min
Histogram: 8 0 0 0 0 0 0 0 0 0
FullNghs:       6392.5 ave        6461 max        6330 min
Histogram: 1 0 0 1 3 2 0 0 0 1

Total # of neighbors = 51140
Ave neighs/atom = 15.98125
Neighbor list builds = 727
Dangerous builds = 0
unfix           f1

fix             f2 mobile nvt temp 300.0 300.0 0.05
run             200000                  # 100 ps NVT
Per MPI rank memory allocation (min/avg/max) = 3.098 | 3.099 | 3.1 Mbytes
   Step          Temp          Press          PotEng           Lx             Ly      
    200000   299.85442     -186.1471      -3470.2821      53.208187      219.2843     
    210000   284.34844     -112.61416     -3476.4948      53.208187      219.2843     
    220000   282.04789     -168.88439     -3478.7591      53.208187      219.2843     
    230000   283.18272     -153.28356     -3479.4314      53.208187      219.2843     
    240000   281.40627      28.537819     -3477.0742      53.208187      219.2843     
    250000   284.33052     -211.79944     -3478.3001      53.208187      219.2843     
    260000   288.21477     -164.0697      -3477.7476      53.208187      219.2843     
    270000   287.90342     -84.187046     -3479.448       53.208187      219.2843     
    280000   285.16099     -111.03163     -3481.3515      53.208187      219.2843     
    290000   279.87997     -3.8529105     -3477.6971      53.208187      219.2843     
    300000   282.85668     -62.337561     -3474.7547      53.208187      219.2843     
    310000   283.36194     -218.09666     -3479.6388      53.208187      219.2843     
    320000   283.35265     -163.70219     -3476.2033      53.208187      219.2843     
    330000   279.78373     -61.645908     -3475.2005      53.208187      219.2843     
    340000   280.17564     -167.0311      -3478.471       53.208187      219.2843     
    350000   285.64707     -140.38817     -3478.467       53.208187      219.2843     
    360000   284.25877     -55.908253     -3477.2306      53.208187      219.2843     
    370000   285.6574      -207.07218     -3475.1446      53.208187      219.2843     
    380000   282.84135     -130.75901     -3480.5399      53.208187      219.2843     
    390000   288.2219      -136.52244     -3477.7028      53.208187      219.2843     
    400000   290.4253      -185.89941     -3480.2639      53.208187      219.2843     
Loop time of 198.188 on 8 procs for 200000 steps with 3200 atoms

Performance: 43.595 ns/day, 0.551 hours/ns, 1009.145 timesteps/s, 3.229 Matom-step/s
72.0% CPU use with 8 MPI tasks x 1 OpenMP threads

MPI task timing breakdown:
Section |  min time  |  avg time  |  max time  |%varavg| %total
---------------------------------------------------------------
Pair    | 57.358     | 58.545     | 60.255     |  12.6 | 29.54
Neigh   | 0.071371   | 0.0759     | 0.081163   |   0.9 |  0.04
Comm    | 56.132     | 57.944     | 59.948     |  18.7 | 29.24
Output  | 0.012811   | 0.015104   | 0.016702   |   1.2 |  0.01
Modify  | 53.772     | 54.726     | 56.143     |   8.9 | 27.61
Other   |            | 26.88      |            |       | 13.56

Nlocal:            400 ave         415 max         385 min
Histogram: 1 1 0 0 1 3 0 0 1 1
Nghost:          224.5 ave         237 max         214 min
Histogram: 2 1 0 0 0 2 2 0 0 1
Neighs:              0 ave           0 max           0 min
Histogram: 8 0 0 0 0 0 0 0 0 0
FullNghs:      6397.25 ave        6638 max        6160 min
Histogram: 1 1 0 0 3 1 0 0 1 1

Total # of neighbors = 51178
Ave neighs/atom = 15.993125
Neighbor list builds = 280
Dangerous builds = 0
unfix           f2
reset_timestep  0

# ---------------- NEMD production -----------------------------------------
fix             f3 mobile nve
fix             fhot  gHOT  langevin 320.0 320.0 0.1 ${seed} tally yes
fix             fhot  gHOT  langevin 320.0 320.0 0.1 1 tally yes
fix             fcold gCOLD langevin 280.0 280.0 0.1 ${seed} tally yes
fix             fcold gCOLD langevin 280.0 280.0 0.1 1 tally yes

compute         ke all ke/atom
variable        tatom atom c_ke/(1.5*8.617333262e-5)

# 40 bins along x.  units reduced -> 3rd arg is the bin WIDTH fraction.
variable        nbins equal 40
variable        binw  equal 1.0/${nbins}
variable        binw  equal 1.0/40
compute         cc mobile chunk/atom bin/1d y lower ${binw} units reduced
compute         cc mobile chunk/atom bin/1d y lower 0.025 units reduced
fix             fp mobile ave/chunk 200 2000 400000 cc v_tatom file T_profile.dat

variable        tps equal step*dt
variable        eh  equal f_fhot
variable        ec  equal f_fcold
fix             fm all print 20000 "${tps} ${eh} ${ec}" file ebath.dat                 title "t_ps E_hot_eV E_cold_eV" screen no

thermo          40000
thermo_style    custom step temp f_fhot f_fcold
run             4000000                 # 2 ns production
Per MPI rank memory allocation (min/avg/max) = 4.723 | 4.725 | 4.725 Mbytes
   Step          Temp          f_fhot        f_fcold    
         0   290.4253      -0             -0            
     40000   286.27179     -6.9685579      6.3996219    
     80000   285.55594     -11.773997      13.863159    
    120000   282.74881     -17.73577       17.898345    
    160000   284.33833     -22.096645      23.339936    
    200000   285.16545     -23.404872      27.636594    
    240000   279.69144     -28.839561      31.095897    
    280000   278.78836     -33.339878      33.532694    
    320000   280.51489     -36.06502       39.886115    
    360000   283.37107     -43.276199      45.597325    
    400000   287.99434     -47.865379      51.023322    
    440000   285.27285     -53.088904      53.24127     
    480000   280.99313     -57.720158      57.233705    
    520000   289.50092     -65.942197      63.605428    
    560000   290.83334     -69.430236      68.379856    
    600000   286.68826     -76.397062      75.626804    
    640000   283.47338     -82.082018      83.342384    
    680000   283.11055     -86.178797      91.501156    
    720000   284.73102     -95.756505      95.742516    
    760000   286.06314     -102.1161       103.63642    
    800000   290.15716     -108.51214      108.55148    
    840000   281.77205     -111.24946      115.20343    
    880000   286.75342     -120.6552       121.33984    
    920000   287.2562      -126.44434      128.90236    
    960000   285.40473     -132.99981      132.32836    
   1000000   279.92565     -136.18219      137.02861    
   1040000   286.68231     -140.33074      140.20774    
   1080000   284.04704     -147.65151      147.06404    
   1120000   283.23568     -151.77027      152.13899    
   1160000   276.72195     -153.42947      156.84233    
   1200000   280.14834     -157.84297      161.23839    
   1240000   284.13091     -162.58293      165.83337    
   1280000   288.84834     -169.17424      168.45021    
   1320000   284.19444     -174.83761      174.54569    
   1360000   288.86108     -181.50838      179.2415     
   1400000   286.65694     -186.90683      184.20455    
   1440000   290.42959     -191.39799      189.08741    
   1480000   285.32848     -193.36403      195.07247    
   1520000   283.6675      -196.56401      199.30338    
   1560000   281.64601     -198.29327      203.11594    
   1600000   284.8137      -204.81253      206.30104    
   1640000   286.16165     -208.3204       208.19199    
   1680000   282.82027     -212.17236      212.70572    
   1720000   279.17527     -216.54472      219.45399    
   1760000   283.66903     -219.10247      222.20455    
   1800000   282.80077     -223.46002      226.03652    
   1840000   282.44929     -228.56957      233.4602     
   1880000   271.39535     -232.93147      238.91058    
   1920000   284.25855     -241.76224      240.73585    
   1960000   276.59493     -244.28176      247.15074    
   2000000   280.00889     -251.97227      253.44894    
   2040000   283.86713     -256.54421      256.50915    
   2080000   283.08422     -263.03904      259.99535    
   2120000   291.59095     -267.7868       265.76013    
   2160000   285.31412     -270.9272       272.82672    
   2200000   284.33458     -278.67606      277.1278     
   2240000   283.73213     -282.60284      283.95556    
   2280000   292.46304     -291.89794      287.72032    
   2320000   277.81363     -294.37379      296.70375    
   2360000   275.27847     -300.45053      304.26207    
   2400000   284.45224     -303.79512      307.06857    
   2440000   279.77789     -309.57174      314.62799    
   2480000   281.50693     -314.75213      319.11746    
   2520000   284.33325     -320.32363      323.9273     
   2560000   278.66426     -323.89832      327.32513    
   2600000   283.76646     -330.22696      331.29132    
   2640000   286.52363     -336.54403      336.39979    
   2680000   286.68732     -339.36745      340.7351     
   2720000   283.84366     -345.03205      345.24104    
   2760000   288.00554     -351.03059      349.09159    
   2800000   288.1688      -358.834        358.34832    
   2840000   282.01839     -363.48667      364.54169    
   2880000   287.70564     -368.27158      369.58415    
   2920000   285.08884     -372.95283      373.87185    
   2960000   280.33827     -375.69471      378.75999    
   3000000   284.61423     -382.8956       383.31493    
   3040000   279.19937     -386.71845      389.28666    
   3080000   284.33153     -393.46828      394.08797    
   3120000   282.88629     -398.31179      395.96522    
   3160000   291.15595     -403.66214      402.25136    
   3200000   282.9092      -404.44801      406.36565    
   3240000   285.98535     -411.1009       412.0983     
   3280000   288.42888     -416.62461      415.75532    
   3320000   289.57247     -420.77511      417.49782    
   3360000   284.23342     -424.21049      425.31522    
   3400000   283.66406     -428.09592      427.40079    
   3440000   281.30679     -431.72338      431.69423    
   3480000   284.29209     -436.91195      434.33454    
   3520000   281.73079     -437.61498      439.49135    
   3560000   288.8096      -443.2332       442.00695    
   3600000   278.73702     -444.67153      448.07034    
   3640000   289.01084     -451.21246      453.15137    
   3680000   288.02484     -455.82051      454.49273    
   3720000   295.07765     -464.82277      461.33543    
   3760000   278.40024     -467.98982      470.06672    
   3800000   283.8334      -473.36769      473.25791    
   3840000   292.56379     -479.53409      477.1555     
   3880000   281.30891     -480.90286      483.38251    
   3920000   286.71754     -486.22654      483.84608    
   3960000   279.84129     -490.77589      491.05601    
   4000000   281.86212     -492.7722       495.44333    
Loop time of 2044.03 on 8 procs for 4000000 steps with 3200 atoms

Performance: 84.539 ns/day, 0.284 hours/ns, 1956.916 timesteps/s, 6.262 Matom-step/s
97.4% CPU use with 8 MPI tasks x 1 OpenMP threads

MPI task timing breakdown:
Section |  min time  |  avg time  |  max time  |%varavg| %total
---------------------------------------------------------------
Pair    | 1072.7     | 1098.2     | 1124.9     |  57.6 | 53.73
Neigh   | 1.0608     | 1.0984     | 1.1268     |   2.4 |  0.05
Comm    | 418.36     | 451.15     | 485.05     | 121.4 | 22.07
Output  | 0.003211   | 0.0073672  | 0.008062   |   1.8 |  0.00
Modify  | 17.133     | 25.195     | 48.869     | 262.2 |  1.23
Other   |            | 468.4      |            |       | 22.92

Nlocal:            400 ave         406 max         394 min
Histogram: 3 0 0 0 0 2 0 0 0 3
Nghost:            229 ave         240 max         217 min
Histogram: 1 0 1 2 0 1 1 0 0 2
Neighs:              0 ave           0 max           0 min
Histogram: 8 0 0 0 0 0 0 0 0 0
FullNghs:         6398 ave        6493 max        6301 min
Histogram: 3 0 0 0 1 1 0 0 0 3

Total # of neighbors = 51184
Ave neighs/atom = 15.995
Neighbor list builds = 4143
Dangerous builds = 0

print "DONE armchair  ${infile}"
DONE armchair  bp_ac_W16_L50.data
Total wall time: 1:02:05
