Wurtzite ZnO (type1=Zn q=+2, type2=O q=-2)

1920 atoms
2 atom types

0.0 12.998000 xlo xhi
0.0 16.884897 ylo yhi
0.0 104.138000 zlo zhi

Masses

1 65.38
2 15.9994

Atoms # charge

1 1 2.0000 0.000000 0.000000 0.000000
2 1 2.0000 1.624750 2.814150 0.000000
3 1 2.0000 1.624750 0.938050 2.603450
4 1 2.0000 0.000000 3.752199 2.603450
5 2 -2.0000 0.000000 0.000000 1.989036
6 2 -2.0000 1.624750 2.814150 1.989036
7 2 -2.0000 1.624750 0.938050 4.592486
8 2 -2.0000 0.000000 3.752199 4.592486
9 1 2.0000 0.000000 0.000000 5.206900
10 1 2.0000 1.624750 2.814150 5.206900
11 1 2.0000 1.624750 0.938050 7.810350
12 1 2.0000 0.000000 3.752199 7.810350
13 2 -2.0000 0.000000 0.000000 7.195936
14 2 -2.0000 1.624750 2.814150 7.195936
15 2 -2.0000 1.624750 0.938050 9.799386
16 2 -2.0000 0.000000 3.752199 9.799386
17 1 2.0000 0.000000 0.000000 10.413800
18 1 2.0000 1.624750 2.814150 10.413800
19 1 2.0000 1.624750 0.938050 13.017250
20 1 2.0000 0.000000 3.752199 13.017250
21 2 -2.0000 0.000000 0.000000 12.402836
22 2 -2.0000 1.624750 2.814150 12.402836
23 2 -2.0000 1.624750 0.938050 15.006286
24 2 -2.0000 0.000000 3.752199 15.006286
25 1 2.0000 0.000000 0.000000 15.620700
26 1 2.0000 1.624750 2.814150 15.620700
27 1 2.0000 1.624750 0.938050 18.224150
28 1 2.0000 0.000000 3.752199 18.224150
29 2 -2.0000 0.000000 0.000000 17.609736
30 2 -2.0000 1.624750 2.814150 17.609736
31 2 -2.0000 1.624750 0.938050 20.213186
32 2 -2.0000 0.000000 3.752199 20.213186
33 1 2.0000 0.000000 0.000000 20.827600
34 1 2.0000 1.624750 2.814150 20.827600
35 1 2.0000 1.624750 0.938050 23.431050
36 1 2.0000 0.000000 3.752199 23.431050
37 2 -2.0000 0.000000 0.000000 22.816636
38 2 -2.0000 1.624750 2.814150 22.816636
39 2 -2.0000 1.624750 0.938050 25.420086
40 2 -2.0000 0.000000 3.752199 25.420086
41 1 2.0000 0.000000 0.000000 26.034500
42 1 2.0000 1.624750 2.814150 26.034500
43 1 2.0000 1.624750 0.938050 28.637950
44 1 2.0000 0.000000 3.752199 28.637950
45 2 -2.0000 0.000000 0.000000 28.023536
46 2 -2.0000 1.624750 2.814150 28.023536
47 2 -2.0000 1.624750 0.938050 30.626986
48 2 -2.0000 0.000000 3.752199 30.626986
49 1 2.0000 0.000000 0.000000 31.241400
50 1 2.0000 1.624750 2.814150 31.241400
51 1 2.0000 1.624750 0.938050 33.844850
52 1 2.0000 0.000000 3.752199 33.844850
53 2 -2.0000 0.000000 0.000000 33.230436
54 2 -2.0000 1.624750 2.814150 33.230436
55 2 -2.0000 1.624750 0.938050 35.833886
56 2 -2.0000 0.000000 3.752199 35.833886
57 1 2.0000 0.000000 0.000000 36.448300
58 1 2.0000 1.624750 2.814150 36.448300
59 1 2.0000 1.624750 0.938050 39.051750
60 1 2.0000 0.000000 3.752199 39.051750
61 2 -2.0000 0.000000 0.000000 38.437336
62 2 -2.0000 1.624750 2.814150 38.437336
63 2 -2.0000 1.624750 0.938050 41.040786
64 2 -2.0000 0.000000 3.752199 41.040786
65 1 2.0000 0.000000 0.000000 41.655200
66 1 2.0000 1.624750 2.814150 41.655200
67 1 2.0000 1.624750 0.938050 44.258650
68 1 2.0000 0.000000 3.752199 44.258650
69 2 -2.0000 0.000000 0.000000 43.644236
70 2 -2.0000 1.624750 2.814150 43.644236
71 2 -2.0000 1.624750 0.938050 46.247686
72 2 -2.0000 0.000000 3.752199 46.247686
73 1 2.0000 0.000000 0.000000 46.862100
74 1 2.0000 1.624750 2.814150 46.862100
75 1 2.0000 1.624750 0.938050 49.465550
76 1 2.0000 0.000000 3.752199 49.465550
77 2 -2.0000 0.000000 0.000000 48.851136
78 2 -2.0000 1.624750 2.814150 48.851136
79 2 -2.0000 1.624750 0.938050 51.454586
80 2 -2.0000 0.000000 3.752199 51.454586
81 1 2.0000 0.000000 0.000000 52.069000
82 1 2.0000 1.624750 2.814150 52.069000
83 1 2.0000 1.624750 0.938050 54.672450
84 1 2.0000 0.000000 3.752199 54.672450
85 2 -2.0000 0.000000 0.000000 54.058036
86 2 -2.0000 1.624750 2.814150 54.058036
87 2 -2.0000 1.624750 0.938050 56.661486
88 2 -2.0000 0.000000 3.752199 56.661486
89 1 2.0000 0.000000 0.000000 57.275900
90 1 2.0000 1.624750 2.814150 57.275900
91 1 2.0000 1.624750 0.938050 59.879350
92 1 2.0000 0.000000 3.752199 59.879350
93 2 -2.0000 0.000000 0.000000 59.264936
94 2 -2.0000 1.624750 2.814150 59.264936
95 2 -2.0000 1.624750 0.938050 61.868386
96 2 -2.0000 0.000000 3.752199 61.868386
97 1 2.0000 0.000000 0.000000 62.482800
98 1 2.0000 1.624750 2.814150 62.482800
99 1 2.0000 1.624750 0.938050 65.086250
100 1 2.0000 0.000000 3.752199 65.086250
101 2 -2.0000 0.000000 0.000000 64.471836
102 2 -2.0000 1.624750 2.814150 64.471836
103 2 -2.0000 1.624750 0.938050 67.075286
104 2 -2.0000 0.000000 3.752199 67.075286
105 1 2.0000 0.000000 0.000000 67.689700
106 1 2.0000 1.624750 2.814150 67.689700
107 1 2.0000 1.624750 0.938050 70.293150
108 1 2.0000 0.000000 3.752199 70.293150
109 2 -2.0000 0.000000 0.000000 69.678736
110 2 -2.0000 1.624750 2.814150 69.678736
111 2 -2.0000 1.624750 0.938050 72.282186
112 2 -2.0000 0.000000 3.752199 72.282186
113 1 2.0000 0.000000 0.000000 72.896600
114 1 2.0000 1.624750 2.814150 72.896600
115 1 2.0000 1.624750 0.938050 75.500050
116 1 2.0000 0.000000 3.752199 75.500050
117 2 -2.0000 0.000000 0.000000 74.885636
118 2 -2.0000 1.624750 2.814150 74.885636
119 2 -2.0000 1.624750 0.938050 77.489086
120 2 -2.0000 0.000000 3.752199 77.489086
121 1 2.0000 0.000000 0.000000 78.103500
122 1 2.0000 1.624750 2.814150 78.103500
123 1 2.0000 1.624750 0.938050 80.706950
124 1 2.0000 0.000000 3.752199 80.706950
125 2 -2.0000 0.000000 0.000000 80.092536
126 2 -2.0000 1.624750 2.814150 80.092536
127 2 -2.0000 1.624750 0.938050 82.695986
128 2 -2.0000 0.000000 3.752199 82.695986
129 1 2.0000 0.000000 0.000000 83.310400
130 1 2.0000 1.624750 2.814150 83.310400
131 1 2.0000 1.624750 0.938050 85.913850
132 1 2.0000 0.000000 3.752199 85.913850
133 2 -2.0000 0.000000 0.000000 85.299436
134 2 -2.0000 1.624750 2.814150 85.299436
135 2 -2.0000 1.624750 0.938050 87.902886
136 2 -2.0000 0.000000 3.752199 87.902886
137 1 2.0000 0.000000 0.000000 88.517300
138 1 2.0000 1.624750 2.814150 88.517300
139 1 2.0000 1.624750 0.938050 91.120750
140 1 2.0000 0.000000 3.752199 91.120750
141 2 -2.0000 0.000000 0.000000 90.506336
142 2 -2.0000 1.624750 2.814150 90.506336
143 2 -2.0000 1.624750 0.938050 93.109786
144 2 -2.0000 0.000000 3.752199 93.109786
145 1 2.0000 0.000000 0.000000 93.724200
146 1 2.0000 1.624750 2.814150 93.724200
147 1 2.0000 1.624750 0.938050 96.327650
148 1 2.0000 0.000000 3.752199 96.327650
149 2 -2.0000 0.000000 0.000000 95.713236
150 2 -2.0000 1.624750 2.814150 95.713236
151 2 -2.0000 1.624750 0.938050 98.316686
152 2 -2.0000 0.000000 3.752199 98.316686
153 1 2.0000 0.000000 0.000000 98.931100
154 1 2.0000 1.624750 2.814150 98.931100
155 1 2.0000 1.624750 0.938050 101.534550
156 1 2.0000 0.000000 3.752199 101.534550
157 2 -2.0000 0.000000 0.000000 100.920136
158 2 -2.0000 1.624750 2.814150 100.920136
159 2 -2.0000 1.624750 0.938050 103.523586
160 2 -2.0000 0.000000 3.752199 103.523586
161 1 2.0000 0.000000 5.628299 0.000000
162 1 2.0000 1.624750 8.442449 0.000000
163 1 2.0000 1.624750 6.566349 2.603450
164 1 2.0000 0.000000 9.380498 2.603450
165 2 -2.0000 0.000000 5.628299 1.989036
166 2 -2.0000 1.624750 8.442449 1.989036
167 2 -2.0000 1.624750 6.566349 4.592486
168 2 -2.0000 0.000000 9.380498 4.592486
169 1 2.0000 0.000000 5.628299 5.206900
170 1 2.0000 1.624750 8.442449 5.206900
171 1 2.0000 1.624750 6.566349 7.810350
172 1 2.0000 0.000000 9.380498 7.810350
173 2 -2.0000 0.000000 5.628299 7.195936
174 2 -2.0000 1.624750 8.442449 7.195936
175 2 -2.0000 1.624750 6.566349 9.799386
176 2 -2.0000 0.000000 9.380498 9.799386
177 1 2.0000 0.000000 5.628299 10.413800
178 1 2.0000 1.624750 8.442449 10.413800
179 1 2.0000 1.624750 6.566349 13.017250
180 1 2.0000 0.000000 9.380498 13.017250
181 2 -2.0000 0.000000 5.628299 12.402836
182 2 -2.0000 1.624750 8.442449 12.402836
183 2 -2.0000 1.624750 6.566349 15.006286
184 2 -2.0000 0.000000 9.380498 15.006286
185 1 2.0000 0.000000 5.628299 15.620700
186 1 2.0000 1.624750 8.442449 15.620700
187 1 2.0000 1.624750 6.566349 18.224150
188 1 2.0000 0.000000 9.380498 18.224150
189 2 -2.0000 0.000000 5.628299 17.609736
190 2 -2.0000 1.624750 8.442449 17.609736
191 2 -2.0000 1.624750 6.566349 20.213186
192 2 -2.0000 0.000000 9.380498 20.213186
193 1 2.0000 0.000000 5.628299 20.827600
194 1 2.0000 1.624750 8.442449 20.827600
195 1 2.0000 1.624750 6.566349 23.431050
196 1 2.0000 0.000000 9.380498 23.431050
197 2 -2.0000 0.000000 5.628299 22.816636
198 2 -2.0000 1.624750 8.442449 22.816636
199 2 -2.0000 1.624750 6.566349 25.420086
200 2 -2.0000 0.000000 9.380498 25.420086
201 1 2.0000 0.000000 5.628299 26.034500
202 1 2.0000 1.624750 8.442449 26.034500
203 1 2.0000 1.624750 6.566349 28.637950
204 1 2.0000 0.000000 9.380498 28.637950
205 2 -2.0000 0.000000 5.628299 28.023536
206 2 -2.0000 1.624750 8.442449 28.023536
207 2 -2.0000 1.624750 6.566349 30.626986
208 2 -2.0000 0.000000 9.380498 30.626986
209 1 2.0000 0.000000 5.628299 31.241400
210 1 2.0000 1.624750 8.442449 31.241400
211 1 2.0000 1.624750 6.566349 33.844850
212 1 2.0000 0.000000 9.380498 33.844850
213 2 -2.0000 0.000000 5.628299 33.230436
214 2 -2.0000 1.624750 8.442449 33.230436
215 2 -2.0000 1.624750 6.566349 35.833886
216 2 -2.0000 0.000000 9.380498 35.833886
217 1 2.0000 0.000000 5.628299 36.448300
218 1 2.0000 1.624750 8.442449 36.448300
219 1 2.0000 1.624750 6.566349 39.051750
220 1 2.0000 0.000000 9.380498 39.051750
221 2 -2.0000 0.000000 5.628299 38.437336
222 2 -2.0000 1.624750 8.442449 38.437336
223 2 -2.0000 1.624750 6.566349 41.040786
224 2 -2.0000 0.000000 9.380498 41.040786
225 1 2.0000 0.000000 5.628299 41.655200
226 1 2.0000 1.624750 8.442449 41.655200
227 1 2.0000 1.624750 6.566349 44.258650
228 1 2.0000 0.000000 9.380498 44.258650
229 2 -2.0000 0.000000 5.628299 43.644236
230 2 -2.0000 1.624750 8.442449 43.644236
231 2 -2.0000 1.624750 6.566349 46.247686
232 2 -2.0000 0.000000 9.380498 46.247686
233 1 2.0000 0.000000 5.628299 46.862100
234 1 2.0000 1.624750 8.442449 46.862100
235 1 2.0000 1.624750 6.566349 49.465550
236 1 2.0000 0.000000 9.380498 49.465550
237 2 -2.0000 0.000000 5.628299 48.851136
238 2 -2.0000 1.624750 8.442449 48.851136
239 2 -2.0000 1.624750 6.566349 51.454586
240 2 -2.0000 0.000000 9.380498 51.454586
241 1 2.0000 0.000000 5.628299 52.069000
242 1 2.0000 1.624750 8.442449 52.069000
243 1 2.0000 1.624750 6.566349 54.672450
244 1 2.0000 0.000000 9.380498 54.672450
245 2 -2.0000 0.000000 5.628299 54.058036
246 2 -2.0000 1.624750 8.442449 54.058036
247 2 -2.0000 1.624750 6.566349 56.661486
248 2 -2.0000 0.000000 9.380498 56.661486
249 1 2.0000 0.000000 5.628299 57.275900
250 1 2.0000 1.624750 8.442449 57.275900
251 1 2.0000 1.624750 6.566349 59.879350
252 1 2.0000 0.000000 9.380498 59.879350
253 2 -2.0000 0.000000 5.628299 59.264936
254 2 -2.0000 1.624750 8.442449 59.264936
255 2 -2.0000 1.624750 6.566349 61.868386
256 2 -2.0000 0.000000 9.380498 61.868386
257 1 2.0000 0.000000 5.628299 62.482800
258 1 2.0000 1.624750 8.442449 62.482800
259 1 2.0000 1.624750 6.566349 65.086250
260 1 2.0000 0.000000 9.380498 65.086250
261 2 -2.0000 0.000000 5.628299 64.471836
262 2 -2.0000 1.624750 8.442449 64.471836
263 2 -2.0000 1.624750 6.566349 67.075286
264 2 -2.0000 0.000000 9.380498 67.075286
265 1 2.0000 0.000000 5.628299 67.689700
266 1 2.0000 1.624750 8.442449 67.689700
267 1 2.0000 1.624750 6.566349 70.293150
268 1 2.0000 0.000000 9.380498 70.293150
269 2 -2.0000 0.000000 5.628299 69.678736
270 2 -2.0000 1.624750 8.442449 69.678736
271 2 -2.0000 1.624750 6.566349 72.282186
272 2 -2.0000 0.000000 9.380498 72.282186
273 1 2.0000 0.000000 5.628299 72.896600
274 1 2.0000 1.624750 8.442449 72.896600
275 1 2.0000 1.624750 6.566349 75.500050
276 1 2.0000 0.000000 9.380498 75.500050
277 2 -2.0000 0.000000 5.628299 74.885636
278 2 -2.0000 1.624750 8.442449 74.885636
279 2 -2.0000 1.624750 6.566349 77.489086
280 2 -2.0000 0.000000 9.380498 77.489086
281 1 2.0000 0.000000 5.628299 78.103500
282 1 2.0000 1.624750 8.442449 78.103500
283 1 2.0000 1.624750 6.566349 80.706950
284 1 2.0000 0.000000 9.380498 80.706950
285 2 -2.0000 0.000000 5.628299 80.092536
286 2 -2.0000 1.624750 8.442449 80.092536
287 2 -2.0000 1.624750 6.566349 82.695986
288 2 -2.0000 0.000000 9.380498 82.695986
289 1 2.0000 0.000000 5.628299 83.310400
290 1 2.0000 1.624750 8.442449 83.310400
291 1 2.0000 1.624750 6.566349 85.913850
292 1 2.0000 0.000000 9.380498 85.913850
293 2 -2.0000 0.000000 5.628299 85.299436
294 2 -2.0000 1.624750 8.442449 85.299436
295 2 -2.0000 1.624750 6.566349 87.902886
296 2 -2.0000 0.000000 9.380498 87.902886
297 1 2.0000 0.000000 5.628299 88.517300
298 1 2.0000 1.624750 8.442449 88.517300
299 1 2.0000 1.624750 6.566349 91.120750
300 1 2.0000 0.000000 9.380498 91.120750
301 2 -2.0000 0.000000 5.628299 90.506336
302 2 -2.0000 1.624750 8.442449 90.506336
303 2 -2.0000 1.624750 6.566349 93.109786
304 2 -2.0000 0.000000 9.380498 93.109786
305 1 2.0000 0.000000 5.628299 93.724200
306 1 2.0000 1.624750 8.442449 93.724200
307 1 2.0000 1.624750 6.566349 96.327650
308 1 2.0000 0.000000 9.380498 96.327650
309 2 -2.0000 0.000000 5.628299 95.713236
310 2 -2.0000 1.624750 8.442449 95.713236
311 2 -2.0000 1.624750 6.566349 98.316686
312 2 -2.0000 0.000000 9.380498 98.316686
313 1 2.0000 0.000000 5.628299 98.931100
314 1 2.0000 1.624750 8.442449 98.931100
315 1 2.0000 1.624750 6.566349 101.534550
316 1 2.0000 0.000000 9.380498 101.534550
317 2 -2.0000 0.000000 5.628299 100.920136
318 2 -2.0000 1.624750 8.442449 100.920136
319 2 -2.0000 1.624750 6.566349 103.523586
320 2 -2.0000 0.000000 9.380498 103.523586
321 1 2.0000 0.000000 11.256598 0.000000
322 1 2.0000 1.624750 14.070748 0.000000
323 1 2.0000 1.624750 12.194648 2.603450
324 1 2.0000 0.000000 15.008798 2.603450
325 2 -2.0000 0.000000 11.256598 1.989036
326 2 -2.0000 1.624750 14.070748 1.989036
327 2 -2.0000 1.624750 12.194648 4.592486
328 2 -2.0000 0.000000 15.008798 4.592486
329 1 2.0000 0.000000 11.256598 5.206900
330 1 2.0000 1.624750 14.070748 5.206900
331 1 2.0000 1.624750 12.194648 7.810350
332 1 2.0000 0.000000 15.008798 7.810350
333 2 -2.0000 0.000000 11.256598 7.195936
334 2 -2.0000 1.624750 14.070748 7.195936
335 2 -2.0000 1.624750 12.194648 9.799386
336 2 -2.0000 0.000000 15.008798 9.799386
337 1 2.0000 0.000000 11.256598 10.413800
338 1 2.0000 1.624750 14.070748 10.413800
339 1 2.0000 1.624750 12.194648 13.017250
340 1 2.0000 0.000000 15.008798 13.017250
341 2 -2.0000 0.000000 11.256598 12.402836
342 2 -2.0000 1.624750 14.070748 12.402836
343 2 -2.0000 1.624750 12.194648 15.006286
344 2 -2.0000 0.000000 15.008798 15.006286
345 1 2.0000 0.000000 11.256598 15.620700
346 1 2.0000 1.624750 14.070748 15.620700
347 1 2.0000 1.624750 12.194648 18.224150
348 1 2.0000 0.000000 15.008798 18.224150
349 2 -2.0000 0.000000 11.256598 17.609736
350 2 -2.0000 1.624750 14.070748 17.609736
351 2 -2.0000 1.624750 12.194648 20.213186
352 2 -2.0000 0.000000 15.008798 20.213186
353 1 2.0000 0.000000 11.256598 20.827600
354 1 2.0000 1.624750 14.070748 20.827600
355 1 2.0000 1.624750 12.194648 23.431050
356 1 2.0000 0.000000 15.008798 23.431050
357 2 -2.0000 0.000000 11.256598 22.816636
358 2 -2.0000 1.624750 14.070748 22.816636
359 2 -2.0000 1.624750 12.194648 25.420086
360 2 -2.0000 0.000000 15.008798 25.420086
361 1 2.0000 0.000000 11.256598 26.034500
362 1 2.0000 1.624750 14.070748 26.034500
363 1 2.0000 1.624750 12.194648 28.637950
364 1 2.0000 0.000000 15.008798 28.637950
365 2 -2.0000 0.000000 11.256598 28.023536
366 2 -2.0000 1.624750 14.070748 28.023536
367 2 -2.0000 1.624750 12.194648 30.626986
368 2 -2.0000 0.000000 15.008798 30.626986
369 1 2.0000 0.000000 11.256598 31.241400
370 1 2.0000 1.624750 14.070748 31.241400
371 1 2.0000 1.624750 12.194648 33.844850
372 1 2.0000 0.000000 15.008798 33.844850
373 2 -2.0000 0.000000 11.256598 33.230436
374 2 -2.0000 1.624750 14.070748 33.230436
375 2 -2.0000 1.624750 12.194648 35.833886
376 2 -2.0000 0.000000 15.008798 35.833886
377 1 2.0000 0.000000 11.256598 36.448300
378 1 2.0000 1.624750 14.070748 36.448300
379 1 2.0000 1.624750 12.194648 39.051750
380 1 2.0000 0.000000 15.008798 39.051750
381 2 -2.0000 0.000000 11.256598 38.437336
382 2 -2.0000 1.624750 14.070748 38.437336
383 2 -2.0000 1.624750 12.194648 41.040786
384 2 -2.0000 0.000000 15.008798 41.040786
385 1 2.0000 0.000000 11.256598 41.655200
386 1 2.0000 1.624750 14.070748 41.655200
387 1 2.0000 1.624750 12.194648 44.258650
388 1 2.0000 0.000000 15.008798 44.258650
389 2 -2.0000 0.000000 11.256598 43.644236
390 2 -2.0000 1.624750 14.070748 43.644236
391 2 -2.0000 1.624750 12.194648 46.247686
392 2 -2.0000 0.000000 15.008798 46.247686
393 1 2.0000 0.000000 11.256598 46.862100
394 1 2.0000 1.624750 14.070748 46.862100
395 1 2.0000 1.624750 12.194648 49.465550
396 1 2.0000 0.000000 15.008798 49.465550
397 2 -2.0000 0.000000 11.256598 48.851136
398 2 -2.0000 1.624750 14.070748 48.851136
399 2 -2.0000 1.624750 12.194648 51.454586
400 2 -2.0000 0.000000 15.008798 51.454586
401 1 2.0000 0.000000 11.256598 52.069000
402 1 2.0000 1.624750 14.070748 52.069000
403 1 2.0000 1.624750 12.194648 54.672450
404 1 2.0000 0.000000 15.008798 54.672450
405 2 -2.0000 0.000000 11.256598 54.058036
406 2 -2.0000 1.624750 14.070748 54.058036
407 2 -2.0000 1.624750 12.194648 56.661486
408 2 -2.0000 0.000000 15.008798 56.661486
409 1 2.0000 0.000000 11.256598 57.275900
410 1 2.0000 1.624750 14.070748 57.275900
411 1 2.0000 1.624750 12.194648 59.879350
412 1 2.0000 0.000000 15.008798 59.879350
413 2 -2.0000 0.000000 11.256598 59.264936
414 2 -2.0000 1.624750 14.070748 59.264936
415 2 -2.0000 1.624750 12.194648 61.868386
416 2 -2.0000 0.000000 15.008798 61.868386
417 1 2.0000 0.000000 11.256598 62.482800
418 1 2.0000 1.624750 14.070748 62.482800
419 1 2.0000 1.624750 12.194648 65.086250
420 1 2.0000 0.000000 15.008798 65.086250
421 2 -2.0000 0.000000 11.256598 64.471836
422 2 -2.0000 1.624750 14.070748 64.471836
423 2 -2.0000 1.624750 12.194648 67.075286
424 2 -2.0000 0.000000 15.008798 67.075286
425 1 2.0000 0.000000 11.256598 67.689700
426 1 2.0000 1.624750 14.070748 67.689700
427 1 2.0000 1.624750 12.194648 70.293150
428 1 2.0000 0.000000 15.008798 70.293150
429 2 -2.0000 0.000000 11.256598 69.678736
430 2 -2.0000 1.624750 14.070748 69.678736
431 2 -2.0000 1.624750 12.194648 72.282186
432 2 -2.0000 0.000000 15.008798 72.282186
433 1 2.0000 0.000000 11.256598 72.896600
434 1 2.0000 1.624750 14.070748 72.896600
435 1 2.0000 1.624750 12.194648 75.500050
436 1 2.0000 0.000000 15.008798 75.500050
437 2 -2.0000 0.000000 11.256598 74.885636
438 2 -2.0000 1.624750 14.070748 74.885636
439 2 -2.0000 1.624750 12.194648 77.489086
440 2 -2.0000 0.000000 15.008798 77.489086
441 1 2.0000 0.000000 11.256598 78.103500
442 1 2.0000 1.624750 14.070748 78.103500
443 1 2.0000 1.624750 12.194648 80.706950
444 1 2.0000 0.000000 15.008798 80.706950
445 2 -2.0000 0.000000 11.256598 80.092536
446 2 -2.0000 1.624750 14.070748 80.092536
447 2 -2.0000 1.624750 12.194648 82.695986
448 2 -2.0000 0.000000 15.008798 82.695986
449 1 2.0000 0.000000 11.256598 83.310400
450 1 2.0000 1.624750 14.070748 83.310400
451 1 2.0000 1.624750 12.194648 85.913850
452 1 2.0000 0.000000 15.008798 85.913850
453 2 -2.0000 0.000000 11.256598 85.299436
454 2 -2.0000 1.624750 14.070748 85.299436
455 2 -2.0000 1.624750 12.194648 87.902886
456 2 -2.0000 0.000000 15.008798 87.902886
457 1 2.0000 0.000000 11.256598 88.517300
458 1 2.0000 1.624750 14.070748 88.517300
459 1 2.0000 1.624750 12.194648 91.120750
460 1 2.0000 0.000000 15.008798 91.120750
461 2 -2.0000 0.000000 11.256598 90.506336
462 2 -2.0000 1.624750 14.070748 90.506336
463 2 -2.0000 1.624750 12.194648 93.109786
464 2 -2.0000 0.000000 15.008798 93.109786
465 1 2.0000 0.000000 11.256598 93.724200
466 1 2.0000 1.624750 14.070748 93.724200
467 1 2.0000 1.624750 12.194648 96.327650
468 1 2.0000 0.000000 15.008798 96.327650
469 2 -2.0000 0.000000 11.256598 95.713236
470 2 -2.0000 1.624750 14.070748 95.713236
471 2 -2.0000 1.624750 12.194648 98.316686
472 2 -2.0000 0.000000 15.008798 98.316686
473 1 2.0000 0.000000 11.256598 98.931100
474 1 2.0000 1.624750 14.070748 98.931100
475 1 2.0000 1.624750 12.194648 101.534550
476 1 2.0000 0.000000 15.008798 101.534550
477 2 -2.0000 0.000000 11.256598 100.920136
478 2 -2.0000 1.624750 14.070748 100.920136
479 2 -2.0000 1.624750 12.194648 103.523586
480 2 -2.0000 0.000000 15.008798 103.523586
481 1 2.0000 3.249500 0.000000 0.000000
482 1 2.0000 4.874250 2.814150 0.000000
483 1 2.0000 4.874250 0.938050 2.603450
484 1 2.0000 3.249500 3.752199 2.603450
485 2 -2.0000 3.249500 0.000000 1.989036
486 2 -2.0000 4.874250 2.814150 1.989036
487 2 -2.0000 4.874250 0.938050 4.592486
488 2 -2.0000 3.249500 3.752199 4.592486
489 1 2.0000 3.249500 0.000000 5.206900
490 1 2.0000 4.874250 2.814150 5.206900
491 1 2.0000 4.874250 0.938050 7.810350
492 1 2.0000 3.249500 3.752199 7.810350
493 2 -2.0000 3.249500 0.000000 7.195936
494 2 -2.0000 4.874250 2.814150 7.195936
495 2 -2.0000 4.874250 0.938050 9.799386
496 2 -2.0000 3.249500 3.752199 9.799386
497 1 2.0000 3.249500 0.000000 10.413800
498 1 2.0000 4.874250 2.814150 10.413800
499 1 2.0000 4.874250 0.938050 13.017250
500 1 2.0000 3.249500 3.752199 13.017250
501 2 -2.0000 3.249500 0.000000 12.402836
502 2 -2.0000 4.874250 2.814150 12.402836
503 2 -2.0000 4.874250 0.938050 15.006286
504 2 -2.0000 3.249500 3.752199 15.006286
505 1 2.0000 3.249500 0.000000 15.620700
506 1 2.0000 4.874250 2.814150 15.620700
507 1 2.0000 4.874250 0.938050 18.224150
508 1 2.0000 3.249500 3.752199 18.224150
509 2 -2.0000 3.249500 0.000000 17.609736
510 2 -2.0000 4.874250 2.814150 17.609736
511 2 -2.0000 4.874250 0.938050 20.213186
512 2 -2.0000 3.249500 3.752199 20.213186
513 1 2.0000 3.249500 0.000000 20.827600
514 1 2.0000 4.874250 2.814150 20.827600
515 1 2.0000 4.874250 0.938050 23.431050
516 1 2.0000 3.249500 3.752199 23.431050
517 2 -2.0000 3.249500 0.000000 22.816636
518 2 -2.0000 4.874250 2.814150 22.816636
519 2 -2.0000 4.874250 0.938050 25.420086
520 2 -2.0000 3.249500 3.752199 25.420086
521 1 2.0000 3.249500 0.000000 26.034500
522 1 2.0000 4.874250 2.814150 26.034500
523 1 2.0000 4.874250 0.938050 28.637950
524 1 2.0000 3.249500 3.752199 28.637950
525 2 -2.0000 3.249500 0.000000 28.023536
526 2 -2.0000 4.874250 2.814150 28.023536
527 2 -2.0000 4.874250 0.938050 30.626986
528 2 -2.0000 3.249500 3.752199 30.626986
529 1 2.0000 3.249500 0.000000 31.241400
530 1 2.0000 4.874250 2.814150 31.241400
531 1 2.0000 4.874250 0.938050 33.844850
532 1 2.0000 3.249500 3.752199 33.844850
533 2 -2.0000 3.249500 0.000000 33.230436
534 2 -2.0000 4.874250 2.814150 33.230436
535 2 -2.0000 4.874250 0.938050 35.833886
536 2 -2.0000 3.249500 3.752199 35.833886
537 1 2.0000 3.249500 0.000000 36.448300
538 1 2.0000 4.874250 2.814150 36.448300
539 1 2.0000 4.874250 0.938050 39.051750
540 1 2.0000 3.249500 3.752199 39.051750
541 2 -2.0000 3.249500 0.000000 38.437336
542 2 -2.0000 4.874250 2.814150 38.437336
543 2 -2.0000 4.874250 0.938050 41.040786
544 2 -2.0000 3.249500 3.752199 41.040786
545 1 2.0000 3.249500 0.000000 41.655200
546 1 2.0000 4.874250 2.814150 41.655200
547 1 2.0000 4.874250 0.938050 44.258650
548 1 2.0000 3.249500 3.752199 44.258650
549 2 -2.0000 3.249500 0.000000 43.644236
550 2 -2.0000 4.874250 2.814150 43.644236
551 2 -2.0000 4.874250 0.938050 46.247686
552 2 -2.0000 3.249500 3.752199 46.247686
553 1 2.0000 3.249500 0.000000 46.862100
554 1 2.0000 4.874250 2.814150 46.862100
555 1 2.0000 4.874250 0.938050 49.465550
556 1 2.0000 3.249500 3.752199 49.465550
557 2 -2.0000 3.249500 0.000000 48.851136
558 2 -2.0000 4.874250 2.814150 48.851136
559 2 -2.0000 4.874250 0.938050 51.454586
560 2 -2.0000 3.249500 3.752199 51.454586
561 1 2.0000 3.249500 0.000000 52.069000
562 1 2.0000 4.874250 2.814150 52.069000
563 1 2.0000 4.874250 0.938050 54.672450
564 1 2.0000 3.249500 3.752199 54.672450
565 2 -2.0000 3.249500 0.000000 54.058036
566 2 -2.0000 4.874250 2.814150 54.058036
567 2 -2.0000 4.874250 0.938050 56.661486
568 2 -2.0000 3.249500 3.752199 56.661486
569 1 2.0000 3.249500 0.000000 57.275900
570 1 2.0000 4.874250 2.814150 57.275900
571 1 2.0000 4.874250 0.938050 59.879350
572 1 2.0000 3.249500 3.752199 59.879350
573 2 -2.0000 3.249500 0.000000 59.264936
574 2 -2.0000 4.874250 2.814150 59.264936
575 2 -2.0000 4.874250 0.938050 61.868386
576 2 -2.0000 3.249500 3.752199 61.868386
577 1 2.0000 3.249500 0.000000 62.482800
578 1 2.0000 4.874250 2.814150 62.482800
579 1 2.0000 4.874250 0.938050 65.086250
580 1 2.0000 3.249500 3.752199 65.086250
581 2 -2.0000 3.249500 0.000000 64.471836
582 2 -2.0000 4.874250 2.814150 64.471836
583 2 -2.0000 4.874250 0.938050 67.075286
584 2 -2.0000 3.249500 3.752199 67.075286
585 1 2.0000 3.249500 0.000000 67.689700
586 1 2.0000 4.874250 2.814150 67.689700
587 1 2.0000 4.874250 0.938050 70.293150
588 1 2.0000 3.249500 3.752199 70.293150
589 2 -2.0000 3.249500 0.000000 69.678736
590 2 -2.0000 4.874250 2.814150 69.678736
591 2 -2.0000 4.874250 0.938050 72.282186
592 2 -2.0000 3.249500 3.752199 72.282186
593 1 2.0000 3.249500 0.000000 72.896600
594 1 2.0000 4.874250 2.814150 72.896600
595 1 2.0000 4.874250 0.938050 75.500050
596 1 2.0000 3.249500 3.752199 75.500050
597 2 -2.0000 3.249500 0.000000 74.885636
598 2 -2.0000 4.874250 2.814150 74.885636
599 2 -2.0000 4.874250 0.938050 77.489086
600 2 -2.0000 3.249500 3.752199 77.489086
601 1 2.0000 3.249500 0.000000 78.103500
602 1 2.0000 4.874250 2.814150 78.103500
603 1 2.0000 4.874250 0.938050 80.706950
604 1 2.0000 3.249500 3.752199 80.706950
605 2 -2.0000 3.249500 0.000000 80.092536
606 2 -2.0000 4.874250 2.814150 80.092536
607 2 -2.0000 4.874250 0.938050 82.695986
608 2 -2.0000 3.249500 3.752199 82.695986
609 1 2.0000 3.249500 0.000000 83.310400
610 1 2.0000 4.874250 2.814150 83.310400
611 1 2.0000 4.874250 0.938050 85.913850
612 1 2.0000 3.249500 3.752199 85.913850
613 2 -2.0000 3.249500 0.000000 85.299436
614 2 -2.0000 4.874250 2.814150 85.299436
615 2 -2.0000 4.874250 0.938050 87.902886
616 2 -2.0000 3.249500 3.752199 87.902886
617 1 2.0000 3.249500 0.000000 88.517300
618 1 2.0000 4.874250 2.814150 88.517300
619 1 2.0000 4.874250 0.938050 91.120750
620 1 2.0000 3.249500 3.752199 91.120750
621 2 -2.0000 3.249500 0.000000 90.506336
622 2 -2.0000 4.874250 2.814150 90.506336
623 2 -2.0000 4.874250 0.938050 93.109786
624 2 -2.0000 3.249500 3.752199 93.109786
625 1 2.0000 3.249500 0.000000 93.724200
626 1 2.0000 4.874250 2.814150 93.724200
627 1 2.0000 4.874250 0.938050 96.327650
628 1 2.0000 3.249500 3.752199 96.327650
629 2 -2.0000 3.249500 0.000000 95.713236
630 2 -2.0000 4.874250 2.814150 95.713236
631 2 -2.0000 4.874250 0.938050 98.316686
632 2 -2.0000 3.249500 3.752199 98.316686
633 1 2.0000 3.249500 0.000000 98.931100
634 1 2.0000 4.874250 2.814150 98.931100
635 1 2.0000 4.874250 0.938050 101.534550
636 1 2.0000 3.249500 3.752199 101.534550
637 2 -2.0000 3.249500 0.000000 100.920136
638 2 -2.0000 4.874250 2.814150 100.920136
639 2 -2.0000 4.874250 0.938050 103.523586
640 2 -2.0000 3.249500 3.752199 103.523586
641 1 2.0000 3.249500 5.628299 0.000000
642 1 2.0000 4.874250 8.442449 0.000000
643 1 2.0000 4.874250 6.566349 2.603450
644 1 2.0000 3.249500 9.380498 2.603450
645 2 -2.0000 3.249500 5.628299 1.989036
646 2 -2.0000 4.874250 8.442449 1.989036
647 2 -2.0000 4.874250 6.566349 4.592486
648 2 -2.0000 3.249500 9.380498 4.592486
649 1 2.0000 3.249500 5.628299 5.206900
650 1 2.0000 4.874250 8.442449 5.206900
651 1 2.0000 4.874250 6.566349 7.810350
652 1 2.0000 3.249500 9.380498 7.810350
653 2 -2.0000 3.249500 5.628299 7.195936
654 2 -2.0000 4.874250 8.442449 7.195936
655 2 -2.0000 4.874250 6.566349 9.799386
656 2 -2.0000 3.249500 9.380498 9.799386
657 1 2.0000 3.249500 5.628299 10.413800
658 1 2.0000 4.874250 8.442449 10.413800
659 1 2.0000 4.874250 6.566349 13.017250
660 1 2.0000 3.249500 9.380498 13.017250
661 2 -2.0000 3.249500 5.628299 12.402836
662 2 -2.0000 4.874250 8.442449 12.402836
663 2 -2.0000 4.874250 6.566349 15.006286
664 2 -2.0000 3.249500 9.380498 15.006286
665 1 2.0000 3.249500 5.628299 15.620700
666 1 2.0000 4.874250 8.442449 15.620700
667 1 2.0000 4.874250 6.566349 18.224150
668 1 2.0000 3.249500 9.380498 18.224150
669 2 -2.0000 3.249500 5.628299 17.609736
670 2 -2.0000 4.874250 8.442449 17.609736
671 2 -2.0000 4.874250 6.566349 20.213186
672 2 -2.0000 3.249500 9.380498 20.213186
673 1 2.0000 3.249500 5.628299 20.827600
674 1 2.0000 4.874250 8.442449 20.827600
675 1 2.0000 4.874250 6.566349 23.431050
676 1 2.0000 3.249500 9.380498 23.431050
677 2 -2.0000 3.249500 5.628299 22.816636
678 2 -2.0000 4.874250 8.442449 22.816636
679 2 -2.0000 4.874250 6.566349 25.420086
680 2 -2.0000 3.249500 9.380498 25.420086
681 1 2.0000 3.249500 5.628299 26.034500
682 1 2.0000 4.874250 8.442449 26.034500
683 1 2.0000 4.874250 6.566349 28.637950
684 1 2.0000 3.249500 9.380498 28.637950
685 2 -2.0000 3.249500 5.628299 28.023536
686 2 -2.0000 4.874250 8.442449 28.023536
687 2 -2.0000 4.874250 6.566349 30.626986
688 2 -2.0000 3.249500 9.380498 30.626986
689 1 2.0000 3.249500 5.628299 31.241400
690 1 2.0000 4.874250 8.442449 31.241400
691 1 2.0000 4.874250 6.566349 33.844850
692 1 2.0000 3.249500 9.380498 33.844850
693 2 -2.0000 3.249500 5.628299 33.230436
694 2 -2.0000 4.874250 8.442449 33.230436
695 2 -2.0000 4.874250 6.566349 35.833886
696 2 -2.0000 3.249500 9.380498 35.833886
697 1 2.0000 3.249500 5.628299 36.448300
698 1 2.0000 4.874250 8.442449 36.448300
699 1 2.0000 4.874250 6.566349 39.051750
700 1 2.0000 3.249500 9.380498 39.051750
701 2 -2.0000 3.249500 5.628299 38.437336
702 2 -2.0000 4.874250 8.442449 38.437336
703 2 -2.0000 4.874250 6.566349 41.040786
704 2 -2.0000 3.249500 9.380498 41.040786
705 1 2.0000 3.249500 5.628299 41.655200
706 1 2.0000 4.874250 8.442449 41.655200
707 1 2.0000 4.874250 6.566349 44.258650
708 1 2.0000 3.249500 9.380498 44.258650
709 2 -2.0000 3.249500 5.628299 43.644236
710 2 -2.0000 4.874250 8.442449 43.644236
711 2 -2.0000 4.874250 6.566349 46.247686
712 2 -2.0000 3.249500 9.380498 46.247686
713 1 2.0000 3.249500 5.628299 46.862100
714 1 2.0000 4.874250 8.442449 46.862100
715 1 2.0000 4.874250 6.566349 49.465550
716 1 2.0000 3.249500 9.380498 49.465550
717 2 -2.0000 3.249500 5.628299 48.851136
718 2 -2.0000 4.874250 8.442449 48.851136
719 2 -2.0000 4.874250 6.566349 51.454586
720 2 -2.0000 3.249500 9.380498 51.454586
721 1 2.0000 3.249500 5.628299 52.069000
722 1 2.0000 4.874250 8.442449 52.069000
723 1 2.0000 4.874250 6.566349 54.672450
724 1 2.0000 3.249500 9.380498 54.672450
725 2 -2.0000 3.249500 5.628299 54.058036
726 2 -2.0000 4.874250 8.442449 54.058036
727 2 -2.0000 4.874250 6.566349 56.661486
728 2 -2.0000 3.249500 9.380498 56.661486
729 1 2.0000 3.249500 5.628299 57.275900
730 1 2.0000 4.874250 8.442449 57.275900
731 1 2.0000 4.874250 6.566349 59.879350
732 1 2.0000 3.249500 9.380498 59.879350
733 2 -2.0000 3.249500 5.628299 59.264936
734 2 -2.0000 4.874250 8.442449 59.264936
735 2 -2.0000 4.874250 6.566349 61.868386
736 2 -2.0000 3.249500 9.380498 61.868386
737 1 2.0000 3.249500 5.628299 62.482800
738 1 2.0000 4.874250 8.442449 62.482800
739 1 2.0000 4.874250 6.566349 65.086250
740 1 2.0000 3.249500 9.380498 65.086250
741 2 -2.0000 3.249500 5.628299 64.471836
742 2 -2.0000 4.874250 8.442449 64.471836
743 2 -2.0000 4.874250 6.566349 67.075286
744 2 -2.0000 3.249500 9.380498 67.075286
745 1 2.0000 3.249500 5.628299 67.689700
746 1 2.0000 4.874250 8.442449 67.689700
747 1 2.0000 4.874250 6.566349 70.293150
748 1 2.0000 3.249500 9.380498 70.293150
749 2 -2.0000 3.249500 5.628299 69.678736
750 2 -2.0000 4.874250 8.442449 69.678736
751 2 -2.0000 4.874250 6.566349 72.282186
752 2 -2.0000 3.249500 9.380498 72.282186
753 1 2.0000 3.249500 5.628299 72.896600
754 1 2.0000 4.874250 8.442449 72.896600
755 1 2.0000 4.874250 6.566349 75.500050
756 1 2.0000 3.249500 9.380498 75.500050
757 2 -2.0000 3.249500 5.628299 74.885636
758 2 -2.0000 4.874250 8.442449 74.885636
759 2 -2.0000 4.874250 6.566349 77.489086
760 2 -2.0000 3.249500 9.380498 77.489086
761 1 2.0000 3.249500 5.628299 78.103500
762 1 2.0000 4.874250 8.442449 78.103500
763 1 2.0000 4.874250 6.566349 80.706950
764 1 2.0000 3.249500 9.380498 80.706950
765 2 -2.0000 3.249500 5.628299 80.092536
766 2 -2.0000 4.874250 8.442449 80.092536
767 2 -2.0000 4.874250 6.566349 82.695986
768 2 -2.0000 3.249500 9.380498 82.695986
769 1 2.0000 3.249500 5.628299 83.310400
770 1 2.0000 4.874250 8.442449 83.310400
771 1 2.0000 4.874250 6.566349 85.913850
772 1 2.0000 3.249500 9.380498 85.913850
773 2 -2.0000 3.249500 5.628299 85.299436
774 2 -2.0000 4.874250 8.442449 85.299436
775 2 -2.0000 4.874250 6.566349 87.902886
776 2 -2.0000 3.249500 9.380498 87.902886
777 1 2.0000 3.249500 5.628299 88.517300
778 1 2.0000 4.874250 8.442449 88.517300
779 1 2.0000 4.874250 6.566349 91.120750
780 1 2.0000 3.249500 9.380498 91.120750
781 2 -2.0000 3.249500 5.628299 90.506336
782 2 -2.0000 4.874250 8.442449 90.506336
783 2 -2.0000 4.874250 6.566349 93.109786
784 2 -2.0000 3.249500 9.380498 93.109786
785 1 2.0000 3.249500 5.628299 93.724200
786 1 2.0000 4.874250 8.442449 93.724200
787 1 2.0000 4.874250 6.566349 96.327650
788 1 2.0000 3.249500 9.380498 96.327650
789 2 -2.0000 3.249500 5.628299 95.713236
790 2 -2.0000 4.874250 8.442449 95.713236
791 2 -2.0000 4.874250 6.566349 98.316686
792 2 -2.0000 3.249500 9.380498 98.316686
793 1 2.0000 3.249500 5.628299 98.931100
794 1 2.0000 4.874250 8.442449 98.931100
795 1 2.0000 4.874250 6.566349 101.534550
796 1 2.0000 3.249500 9.380498 101.534550
797 2 -2.0000 3.249500 5.628299 100.920136
798 2 -2.0000 4.874250 8.442449 100.920136
799 2 -2.0000 4.874250 6.566349 103.523586
800 2 -2.0000 3.249500 9.380498 103.523586
801 1 2.0000 3.249500 11.256598 0.000000
802 1 2.0000 4.874250 14.070748 0.000000
803 1 2.0000 4.874250 12.194648 2.603450
804 1 2.0000 3.249500 15.008798 2.603450
805 2 -2.0000 3.249500 11.256598 1.989036
806 2 -2.0000 4.874250 14.070748 1.989036
807 2 -2.0000 4.874250 12.194648 4.592486
808 2 -2.0000 3.249500 15.008798 4.592486
809 1 2.0000 3.249500 11.256598 5.206900
810 1 2.0000 4.874250 14.070748 5.206900
811 1 2.0000 4.874250 12.194648 7.810350
812 1 2.0000 3.249500 15.008798 7.810350
813 2 -2.0000 3.249500 11.256598 7.195936
814 2 -2.0000 4.874250 14.070748 7.195936
815 2 -2.0000 4.874250 12.194648 9.799386
816 2 -2.0000 3.249500 15.008798 9.799386
817 1 2.0000 3.249500 11.256598 10.413800
818 1 2.0000 4.874250 14.070748 10.413800
819 1 2.0000 4.874250 12.194648 13.017250
820 1 2.0000 3.249500 15.008798 13.017250
821 2 -2.0000 3.249500 11.256598 12.402836
822 2 -2.0000 4.874250 14.070748 12.402836
823 2 -2.0000 4.874250 12.194648 15.006286
824 2 -2.0000 3.249500 15.008798 15.006286
825 1 2.0000 3.249500 11.256598 15.620700
826 1 2.0000 4.874250 14.070748 15.620700
827 1 2.0000 4.874250 12.194648 18.224150
828 1 2.0000 3.249500 15.008798 18.224150
829 2 -2.0000 3.249500 11.256598 17.609736
830 2 -2.0000 4.874250 14.070748 17.609736
831 2 -2.0000 4.874250 12.194648 20.213186
832 2 -2.0000 3.249500 15.008798 20.213186
833 1 2.0000 3.249500 11.256598 20.827600
834 1 2.0000 4.874250 14.070748 20.827600
835 1 2.0000 4.874250 12.194648 23.431050
836 1 2.0000 3.249500 15.008798 23.431050
837 2 -2.0000 3.249500 11.256598 22.816636
838 2 -2.0000 4.874250 14.070748 22.816636
839 2 -2.0000 4.874250 12.194648 25.420086
840 2 -2.0000 3.249500 15.008798 25.420086
841 1 2.0000 3.249500 11.256598 26.034500
842 1 2.0000 4.874250 14.070748 26.034500
843 1 2.0000 4.874250 12.194648 28.637950
844 1 2.0000 3.249500 15.008798 28.637950
845 2 -2.0000 3.249500 11.256598 28.023536
846 2 -2.0000 4.874250 14.070748 28.023536
847 2 -2.0000 4.874250 12.194648 30.626986
848 2 -2.0000 3.249500 15.008798 30.626986
849 1 2.0000 3.249500 11.256598 31.241400
850 1 2.0000 4.874250 14.070748 31.241400
851 1 2.0000 4.874250 12.194648 33.844850
852 1 2.0000 3.249500 15.008798 33.844850
853 2 -2.0000 3.249500 11.256598 33.230436
854 2 -2.0000 4.874250 14.070748 33.230436
855 2 -2.0000 4.874250 12.194648 35.833886
856 2 -2.0000 3.249500 15.008798 35.833886
857 1 2.0000 3.249500 11.256598 36.448300
858 1 2.0000 4.874250 14.070748 36.448300
859 1 2.0000 4.874250 12.194648 39.051750
860 1 2.0000 3.249500 15.008798 39.051750
861 2 -2.0000 3.249500 11.256598 38.437336
862 2 -2.0000 4.874250 14.070748 38.437336
863 2 -2.0000 4.874250 12.194648 41.040786
864 2 -2.0000 3.249500 15.008798 41.040786
865 1 2.0000 3.249500 11.256598 41.655200
866 1 2.0000 4.874250 14.070748 41.655200
867 1 2.0000 4.874250 12.194648 44.258650
868 1 2.0000 3.249500 15.008798 44.258650
869 2 -2.0000 3.249500 11.256598 43.644236
870 2 -2.0000 4.874250 14.070748 43.644236
871 2 -2.0000 4.874250 12.194648 46.247686
872 2 -2.0000 3.249500 15.008798 46.247686
873 1 2.0000 3.249500 11.256598 46.862100
874 1 2.0000 4.874250 14.070748 46.862100
875 1 2.0000 4.874250 12.194648 49.465550
876 1 2.0000 3.249500 15.008798 49.465550
877 2 -2.0000 3.249500 11.256598 48.851136
878 2 -2.0000 4.874250 14.070748 48.851136
879 2 -2.0000 4.874250 12.194648 51.454586
880 2 -2.0000 3.249500 15.008798 51.454586
881 1 2.0000 3.249500 11.256598 52.069000
882 1 2.0000 4.874250 14.070748 52.069000
883 1 2.0000 4.874250 12.194648 54.672450
884 1 2.0000 3.249500 15.008798 54.672450
885 2 -2.0000 3.249500 11.256598 54.058036
886 2 -2.0000 4.874250 14.070748 54.058036
887 2 -2.0000 4.874250 12.194648 56.661486
888 2 -2.0000 3.249500 15.008798 56.661486
889 1 2.0000 3.249500 11.256598 57.275900
890 1 2.0000 4.874250 14.070748 57.275900
891 1 2.0000 4.874250 12.194648 59.879350
892 1 2.0000 3.249500 15.008798 59.879350
893 2 -2.0000 3.249500 11.256598 59.264936
894 2 -2.0000 4.874250 14.070748 59.264936
895 2 -2.0000 4.874250 12.194648 61.868386
896 2 -2.0000 3.249500 15.008798 61.868386
897 1 2.0000 3.249500 11.256598 62.482800
898 1 2.0000 4.874250 14.070748 62.482800
899 1 2.0000 4.874250 12.194648 65.086250
900 1 2.0000 3.249500 15.008798 65.086250
901 2 -2.0000 3.249500 11.256598 64.471836
902 2 -2.0000 4.874250 14.070748 64.471836
903 2 -2.0000 4.874250 12.194648 67.075286
904 2 -2.0000 3.249500 15.008798 67.075286
905 1 2.0000 3.249500 11.256598 67.689700
906 1 2.0000 4.874250 14.070748 67.689700
907 1 2.0000 4.874250 12.194648 70.293150
908 1 2.0000 3.249500 15.008798 70.293150
909 2 -2.0000 3.249500 11.256598 69.678736
910 2 -2.0000 4.874250 14.070748 69.678736
911 2 -2.0000 4.874250 12.194648 72.282186
912 2 -2.0000 3.249500 15.008798 72.282186
913 1 2.0000 3.249500 11.256598 72.896600
914 1 2.0000 4.874250 14.070748 72.896600
915 1 2.0000 4.874250 12.194648 75.500050
916 1 2.0000 3.249500 15.008798 75.500050
917 2 -2.0000 3.249500 11.256598 74.885636
918 2 -2.0000 4.874250 14.070748 74.885636
919 2 -2.0000 4.874250 12.194648 77.489086
920 2 -2.0000 3.249500 15.008798 77.489086
921 1 2.0000 3.249500 11.256598 78.103500
922 1 2.0000 4.874250 14.070748 78.103500
923 1 2.0000 4.874250 12.194648 80.706950
924 1 2.0000 3.249500 15.008798 80.706950
925 2 -2.0000 3.249500 11.256598 80.092536
926 2 -2.0000 4.874250 14.070748 80.092536
927 2 -2.0000 4.874250 12.194648 82.695986
928 2 -2.0000 3.249500 15.008798 82.695986
929 1 2.0000 3.249500 11.256598 83.310400
930 1 2.0000 4.874250 14.070748 83.310400
931 1 2.0000 4.874250 12.194648 85.913850
932 1 2.0000 3.249500 15.008798 85.913850
933 2 -2.0000 3.249500 11.256598 85.299436
934 2 -2.0000 4.874250 14.070748 85.299436
935 2 -2.0000 4.874250 12.194648 87.902886
936 2 -2.0000 3.249500 15.008798 87.902886
937 1 2.0000 3.249500 11.256598 88.517300
938 1 2.0000 4.874250 14.070748 88.517300
939 1 2.0000 4.874250 12.194648 91.120750
940 1 2.0000 3.249500 15.008798 91.120750
941 2 -2.0000 3.249500 11.256598 90.506336
942 2 -2.0000 4.874250 14.070748 90.506336
943 2 -2.0000 4.874250 12.194648 93.109786
944 2 -2.0000 3.249500 15.008798 93.109786
945 1 2.0000 3.249500 11.256598 93.724200
946 1 2.0000 4.874250 14.070748 93.724200
947 1 2.0000 4.874250 12.194648 96.327650
948 1 2.0000 3.249500 15.008798 96.327650
949 2 -2.0000 3.249500 11.256598 95.713236
950 2 -2.0000 4.874250 14.070748 95.713236
951 2 -2.0000 4.874250 12.194648 98.316686
952 2 -2.0000 3.249500 15.008798 98.316686
953 1 2.0000 3.249500 11.256598 98.931100
954 1 2.0000 4.874250 14.070748 98.931100
955 1 2.0000 4.874250 12.194648 101.534550
956 1 2.0000 3.249500 15.008798 101.534550
957 2 -2.0000 3.249500 11.256598 100.920136
958 2 -2.0000 4.874250 14.070748 100.920136
959 2 -2.0000 4.874250 12.194648 103.523586
960 2 -2.0000 3.249500 15.008798 103.523586
961 1 2.0000 6.499000 0.000000 0.000000
962 1 2.0000 8.123750 2.814150 0.000000
963 1 2.0000 8.123750 0.938050 2.603450
964 1 2.0000 6.499000 3.752199 2.603450
965 2 -2.0000 6.499000 0.000000 1.989036
966 2 -2.0000 8.123750 2.814150 1.989036
967 2 -2.0000 8.123750 0.938050 4.592486
968 2 -2.0000 6.499000 3.752199 4.592486
969 1 2.0000 6.499000 0.000000 5.206900
970 1 2.0000 8.123750 2.814150 5.206900
971 1 2.0000 8.123750 0.938050 7.810350
972 1 2.0000 6.499000 3.752199 7.810350
973 2 -2.0000 6.499000 0.000000 7.195936
974 2 -2.0000 8.123750 2.814150 7.195936
975 2 -2.0000 8.123750 0.938050 9.799386
976 2 -2.0000 6.499000 3.752199 9.799386
977 1 2.0000 6.499000 0.000000 10.413800
978 1 2.0000 8.123750 2.814150 10.413800
979 1 2.0000 8.123750 0.938050 13.017250
980 1 2.0000 6.499000 3.752199 13.017250
981 2 -2.0000 6.499000 0.000000 12.402836
982 2 -2.0000 8.123750 2.814150 12.402836
983 2 -2.0000 8.123750 0.938050 15.006286
984 2 -2.0000 6.499000 3.752199 15.006286
985 1 2.0000 6.499000 0.000000 15.620700
986 1 2.0000 8.123750 2.814150 15.620700
987 1 2.0000 8.123750 0.938050 18.224150
988 1 2.0000 6.499000 3.752199 18.224150
989 2 -2.0000 6.499000 0.000000 17.609736
990 2 -2.0000 8.123750 2.814150 17.609736
991 2 -2.0000 8.123750 0.938050 20.213186
992 2 -2.0000 6.499000 3.752199 20.213186
993 1 2.0000 6.499000 0.000000 20.827600
994 1 2.0000 8.123750 2.814150 20.827600
995 1 2.0000 8.123750 0.938050 23.431050
996 1 2.0000 6.499000 3.752199 23.431050
997 2 -2.0000 6.499000 0.000000 22.816636
998 2 -2.0000 8.123750 2.814150 22.816636
999 2 -2.0000 8.123750 0.938050 25.420086
1000 2 -2.0000 6.499000 3.752199 25.420086
1001 1 2.0000 6.499000 0.000000 26.034500
1002 1 2.0000 8.123750 2.814150 26.034500
1003 1 2.0000 8.123750 0.938050 28.637950
1004 1 2.0000 6.499000 3.752199 28.637950
1005 2 -2.0000 6.499000 0.000000 28.023536
1006 2 -2.0000 8.123750 2.814150 28.023536
1007 2 -2.0000 8.123750 0.938050 30.626986
1008 2 -2.0000 6.499000 3.752199 30.626986
1009 1 2.0000 6.499000 0.000000 31.241400
1010 1 2.0000 8.123750 2.814150 31.241400
1011 1 2.0000 8.123750 0.938050 33.844850
1012 1 2.0000 6.499000 3.752199 33.844850
1013 2 -2.0000 6.499000 0.000000 33.230436
1014 2 -2.0000 8.123750 2.814150 33.230436
1015 2 -2.0000 8.123750 0.938050 35.833886
1016 2 -2.0000 6.499000 3.752199 35.833886
1017 1 2.0000 6.499000 0.000000 36.448300
1018 1 2.0000 8.123750 2.814150 36.448300
1019 1 2.0000 8.123750 0.938050 39.051750
1020 1 2.0000 6.499000 3.752199 39.051750
1021 2 -2.0000 6.499000 0.000000 38.437336
1022 2 -2.0000 8.123750 2.814150 38.437336
1023 2 -2.0000 8.123750 0.938050 41.040786
1024 2 -2.0000 6.499000 3.752199 41.040786
1025 1 2.0000 6.499000 0.000000 41.655200
1026 1 2.0000 8.123750 2.814150 41.655200
1027 1 2.0000 8.123750 0.938050 44.258650
1028 1 2.0000 6.499000 3.752199 44.258650
1029 2 -2.0000 6.499000 0.000000 43.644236
1030 2 -2.0000 8.123750 2.814150 43.644236
1031 2 -2.0000 8.123750 0.938050 46.247686
1032 2 -2.0000 6.499000 3.752199 46.247686
1033 1 2.0000 6.499000 0.000000 46.862100
1034 1 2.0000 8.123750 2.814150 46.862100
1035 1 2.0000 8.123750 0.938050 49.465550
1036 1 2.0000 6.499000 3.752199 49.465550
1037 2 -2.0000 6.499000 0.000000 48.851136
1038 2 -2.0000 8.123750 2.814150 48.851136
1039 2 -2.0000 8.123750 0.938050 51.454586
1040 2 -2.0000 6.499000 3.752199 51.454586
1041 1 2.0000 6.499000 0.000000 52.069000
1042 1 2.0000 8.123750 2.814150 52.069000
1043 1 2.0000 8.123750 0.938050 54.672450
1044 1 2.0000 6.499000 3.752199 54.672450
1045 2 -2.0000 6.499000 0.000000 54.058036
1046 2 -2.0000 8.123750 2.814150 54.058036
1047 2 -2.0000 8.123750 0.938050 56.661486
1048 2 -2.0000 6.499000 3.752199 56.661486
1049 1 2.0000 6.499000 0.000000 57.275900
1050 1 2.0000 8.123750 2.814150 57.275900
1051 1 2.0000 8.123750 0.938050 59.879350
1052 1 2.0000 6.499000 3.752199 59.879350
1053 2 -2.0000 6.499000 0.000000 59.264936
1054 2 -2.0000 8.123750 2.814150 59.264936
1055 2 -2.0000 8.123750 0.938050 61.868386
1056 2 -2.0000 6.499000 3.752199 61.868386
1057 1 2.0000 6.499000 0.000000 62.482800
1058 1 2.0000 8.123750 2.814150 62.482800
1059 1 2.0000 8.123750 0.938050 65.086250
1060 1 2.0000 6.499000 3.752199 65.086250
1061 2 -2.0000 6.499000 0.000000 64.471836
1062 2 -2.0000 8.123750 2.814150 64.471836
1063 2 -2.0000 8.123750 0.938050 67.075286
1064 2 -2.0000 6.499000 3.752199 67.075286
1065 1 2.0000 6.499000 0.000000 67.689700
1066 1 2.0000 8.123750 2.814150 67.689700
1067 1 2.0000 8.123750 0.938050 70.293150
1068 1 2.0000 6.499000 3.752199 70.293150
1069 2 -2.0000 6.499000 0.000000 69.678736
1070 2 -2.0000 8.123750 2.814150 69.678736
1071 2 -2.0000 8.123750 0.938050 72.282186
1072 2 -2.0000 6.499000 3.752199 72.282186
1073 1 2.0000 6.499000 0.000000 72.896600
1074 1 2.0000 8.123750 2.814150 72.896600
1075 1 2.0000 8.123750 0.938050 75.500050
1076 1 2.0000 6.499000 3.752199 75.500050
1077 2 -2.0000 6.499000 0.000000 74.885636
1078 2 -2.0000 8.123750 2.814150 74.885636
1079 2 -2.0000 8.123750 0.938050 77.489086
1080 2 -2.0000 6.499000 3.752199 77.489086
1081 1 2.0000 6.499000 0.000000 78.103500
1082 1 2.0000 8.123750 2.814150 78.103500
1083 1 2.0000 8.123750 0.938050 80.706950
1084 1 2.0000 6.499000 3.752199 80.706950
1085 2 -2.0000 6.499000 0.000000 80.092536
1086 2 -2.0000 8.123750 2.814150 80.092536
1087 2 -2.0000 8.123750 0.938050 82.695986
1088 2 -2.0000 6.499000 3.752199 82.695986
1089 1 2.0000 6.499000 0.000000 83.310400
1090 1 2.0000 8.123750 2.814150 83.310400
1091 1 2.0000 8.123750 0.938050 85.913850
1092 1 2.0000 6.499000 3.752199 85.913850
1093 2 -2.0000 6.499000 0.000000 85.299436
1094 2 -2.0000 8.123750 2.814150 85.299436
1095 2 -2.0000 8.123750 0.938050 87.902886
1096 2 -2.0000 6.499000 3.752199 87.902886
1097 1 2.0000 6.499000 0.000000 88.517300
1098 1 2.0000 8.123750 2.814150 88.517300
1099 1 2.0000 8.123750 0.938050 91.120750
1100 1 2.0000 6.499000 3.752199 91.120750
1101 2 -2.0000 6.499000 0.000000 90.506336
1102 2 -2.0000 8.123750 2.814150 90.506336
1103 2 -2.0000 8.123750 0.938050 93.109786
1104 2 -2.0000 6.499000 3.752199 93.109786
1105 1 2.0000 6.499000 0.000000 93.724200
1106 1 2.0000 8.123750 2.814150 93.724200
1107 1 2.0000 8.123750 0.938050 96.327650
1108 1 2.0000 6.499000 3.752199 96.327650
1109 2 -2.0000 6.499000 0.000000 95.713236
1110 2 -2.0000 8.123750 2.814150 95.713236
1111 2 -2.0000 8.123750 0.938050 98.316686
1112 2 -2.0000 6.499000 3.752199 98.316686
1113 1 2.0000 6.499000 0.000000 98.931100
1114 1 2.0000 8.123750 2.814150 98.931100
1115 1 2.0000 8.123750 0.938050 101.534550
1116 1 2.0000 6.499000 3.752199 101.534550
1117 2 -2.0000 6.499000 0.000000 100.920136
1118 2 -2.0000 8.123750 2.814150 100.920136
1119 2 -2.0000 8.123750 0.938050 103.523586
1120 2 -2.0000 6.499000 3.752199 103.523586
1121 1 2.0000 6.499000 5.628299 0.000000
1122 1 2.0000 8.123750 8.442449 0.000000
1123 1 2.0000 8.123750 6.566349 2.603450
1124 1 2.0000 6.499000 9.380498 2.603450
1125 2 -2.0000 6.499000 5.628299 1.989036
1126 2 -2.0000 8.123750 8.442449 1.989036
1127 2 -2.0000 8.123750 6.566349 4.592486
1128 2 -2.0000 6.499000 9.380498 4.592486
1129 1 2.0000 6.499000 5.628299 5.206900
1130 1 2.0000 8.123750 8.442449 5.206900
1131 1 2.0000 8.123750 6.566349 7.810350
1132 1 2.0000 6.499000 9.380498 7.810350
1133 2 -2.0000 6.499000 5.628299 7.195936
1134 2 -2.0000 8.123750 8.442449 7.195936
1135 2 -2.0000 8.123750 6.566349 9.799386
1136 2 -2.0000 6.499000 9.380498 9.799386
1137 1 2.0000 6.499000 5.628299 10.413800
1138 1 2.0000 8.123750 8.442449 10.413800
1139 1 2.0000 8.123750 6.566349 13.017250
1140 1 2.0000 6.499000 9.380498 13.017250
1141 2 -2.0000 6.499000 5.628299 12.402836
1142 2 -2.0000 8.123750 8.442449 12.402836
1143 2 -2.0000 8.123750 6.566349 15.006286
1144 2 -2.0000 6.499000 9.380498 15.006286
1145 1 2.0000 6.499000 5.628299 15.620700
1146 1 2.0000 8.123750 8.442449 15.620700
1147 1 2.0000 8.123750 6.566349 18.224150
1148 1 2.0000 6.499000 9.380498 18.224150
1149 2 -2.0000 6.499000 5.628299 17.609736
1150 2 -2.0000 8.123750 8.442449 17.609736
1151 2 -2.0000 8.123750 6.566349 20.213186
1152 2 -2.0000 6.499000 9.380498 20.213186
1153 1 2.0000 6.499000 5.628299 20.827600
1154 1 2.0000 8.123750 8.442449 20.827600
1155 1 2.0000 8.123750 6.566349 23.431050
1156 1 2.0000 6.499000 9.380498 23.431050
1157 2 -2.0000 6.499000 5.628299 22.816636
1158 2 -2.0000 8.123750 8.442449 22.816636
1159 2 -2.0000 8.123750 6.566349 25.420086
1160 2 -2.0000 6.499000 9.380498 25.420086
1161 1 2.0000 6.499000 5.628299 26.034500
1162 1 2.0000 8.123750 8.442449 26.034500
1163 1 2.0000 8.123750 6.566349 28.637950
1164 1 2.0000 6.499000 9.380498 28.637950
1165 2 -2.0000 6.499000 5.628299 28.023536
1166 2 -2.0000 8.123750 8.442449 28.023536
1167 2 -2.0000 8.123750 6.566349 30.626986
1168 2 -2.0000 6.499000 9.380498 30.626986
1169 1 2.0000 6.499000 5.628299 31.241400
1170 1 2.0000 8.123750 8.442449 31.241400
1171 1 2.0000 8.123750 6.566349 33.844850
1172 1 2.0000 6.499000 9.380498 33.844850
1173 2 -2.0000 6.499000 5.628299 33.230436
1174 2 -2.0000 8.123750 8.442449 33.230436
1175 2 -2.0000 8.123750 6.566349 35.833886
1176 2 -2.0000 6.499000 9.380498 35.833886
1177 1 2.0000 6.499000 5.628299 36.448300
1178 1 2.0000 8.123750 8.442449 36.448300
1179 1 2.0000 8.123750 6.566349 39.051750
1180 1 2.0000 6.499000 9.380498 39.051750
1181 2 -2.0000 6.499000 5.628299 38.437336
1182 2 -2.0000 8.123750 8.442449 38.437336
1183 2 -2.0000 8.123750 6.566349 41.040786
1184 2 -2.0000 6.499000 9.380498 41.040786
1185 1 2.0000 6.499000 5.628299 41.655200
1186 1 2.0000 8.123750 8.442449 41.655200
1187 1 2.0000 8.123750 6.566349 44.258650
1188 1 2.0000 6.499000 9.380498 44.258650
1189 2 -2.0000 6.499000 5.628299 43.644236
1190 2 -2.0000 8.123750 8.442449 43.644236
1191 2 -2.0000 8.123750 6.566349 46.247686
1192 2 -2.0000 6.499000 9.380498 46.247686
1193 1 2.0000 6.499000 5.628299 46.862100
1194 1 2.0000 8.123750 8.442449 46.862100
1195 1 2.0000 8.123750 6.566349 49.465550
1196 1 2.0000 6.499000 9.380498 49.465550
1197 2 -2.0000 6.499000 5.628299 48.851136
1198 2 -2.0000 8.123750 8.442449 48.851136
1199 2 -2.0000 8.123750 6.566349 51.454586
1200 2 -2.0000 6.499000 9.380498 51.454586
1201 1 2.0000 6.499000 5.628299 52.069000
1202 1 2.0000 8.123750 8.442449 52.069000
1203 1 2.0000 8.123750 6.566349 54.672450
1204 1 2.0000 6.499000 9.380498 54.672450
1205 2 -2.0000 6.499000 5.628299 54.058036
1206 2 -2.0000 8.123750 8.442449 54.058036
1207 2 -2.0000 8.123750 6.566349 56.661486
1208 2 -2.0000 6.499000 9.380498 56.661486
1209 1 2.0000 6.499000 5.628299 57.275900
1210 1 2.0000 8.123750 8.442449 57.275900
1211 1 2.0000 8.123750 6.566349 59.879350
1212 1 2.0000 6.499000 9.380498 59.879350
1213 2 -2.0000 6.499000 5.628299 59.264936
1214 2 -2.0000 8.123750 8.442449 59.264936
1215 2 -2.0000 8.123750 6.566349 61.868386
1216 2 -2.0000 6.499000 9.380498 61.868386
1217 1 2.0000 6.499000 5.628299 62.482800
1218 1 2.0000 8.123750 8.442449 62.482800
1219 1 2.0000 8.123750 6.566349 65.086250
1220 1 2.0000 6.499000 9.380498 65.086250
1221 2 -2.0000 6.499000 5.628299 64.471836
1222 2 -2.0000 8.123750 8.442449 64.471836
1223 2 -2.0000 8.123750 6.566349 67.075286
1224 2 -2.0000 6.499000 9.380498 67.075286
1225 1 2.0000 6.499000 5.628299 67.689700
1226 1 2.0000 8.123750 8.442449 67.689700
1227 1 2.0000 8.123750 6.566349 70.293150
1228 1 2.0000 6.499000 9.380498 70.293150
1229 2 -2.0000 6.499000 5.628299 69.678736
1230 2 -2.0000 8.123750 8.442449 69.678736
1231 2 -2.0000 8.123750 6.566349 72.282186
1232 2 -2.0000 6.499000 9.380498 72.282186
1233 1 2.0000 6.499000 5.628299 72.896600
1234 1 2.0000 8.123750 8.442449 72.896600
1235 1 2.0000 8.123750 6.566349 75.500050
1236 1 2.0000 6.499000 9.380498 75.500050
1237 2 -2.0000 6.499000 5.628299 74.885636
1238 2 -2.0000 8.123750 8.442449 74.885636
1239 2 -2.0000 8.123750 6.566349 77.489086
1240 2 -2.0000 6.499000 9.380498 77.489086
1241 1 2.0000 6.499000 5.628299 78.103500
1242 1 2.0000 8.123750 8.442449 78.103500
1243 1 2.0000 8.123750 6.566349 80.706950
1244 1 2.0000 6.499000 9.380498 80.706950
1245 2 -2.0000 6.499000 5.628299 80.092536
1246 2 -2.0000 8.123750 8.442449 80.092536
1247 2 -2.0000 8.123750 6.566349 82.695986
1248 2 -2.0000 6.499000 9.380498 82.695986
1249 1 2.0000 6.499000 5.628299 83.310400
1250 1 2.0000 8.123750 8.442449 83.310400
1251 1 2.0000 8.123750 6.566349 85.913850
1252 1 2.0000 6.499000 9.380498 85.913850
1253 2 -2.0000 6.499000 5.628299 85.299436
1254 2 -2.0000 8.123750 8.442449 85.299436
1255 2 -2.0000 8.123750 6.566349 87.902886
1256 2 -2.0000 6.499000 9.380498 87.902886
1257 1 2.0000 6.499000 5.628299 88.517300
1258 1 2.0000 8.123750 8.442449 88.517300
1259 1 2.0000 8.123750 6.566349 91.120750
1260 1 2.0000 6.499000 9.380498 91.120750
1261 2 -2.0000 6.499000 5.628299 90.506336
1262 2 -2.0000 8.123750 8.442449 90.506336
1263 2 -2.0000 8.123750 6.566349 93.109786
1264 2 -2.0000 6.499000 9.380498 93.109786
1265 1 2.0000 6.499000 5.628299 93.724200
1266 1 2.0000 8.123750 8.442449 93.724200
1267 1 2.0000 8.123750 6.566349 96.327650
1268 1 2.0000 6.499000 9.380498 96.327650
1269 2 -2.0000 6.499000 5.628299 95.713236
1270 2 -2.0000 8.123750 8.442449 95.713236
1271 2 -2.0000 8.123750 6.566349 98.316686
1272 2 -2.0000 6.499000 9.380498 98.316686
1273 1 2.0000 6.499000 5.628299 98.931100
1274 1 2.0000 8.123750 8.442449 98.931100
1275 1 2.0000 8.123750 6.566349 101.534550
1276 1 2.0000 6.499000 9.380498 101.534550
1277 2 -2.0000 6.499000 5.628299 100.920136
1278 2 -2.0000 8.123750 8.442449 100.920136
1279 2 -2.0000 8.123750 6.566349 103.523586
1280 2 -2.0000 6.499000 9.380498 103.523586
1281 1 2.0000 6.499000 11.256598 0.000000
1282 1 2.0000 8.123750 14.070748 0.000000
1283 1 2.0000 8.123750 12.194648 2.603450
1284 1 2.0000 6.499000 15.008798 2.603450
1285 2 -2.0000 6.499000 11.256598 1.989036
1286 2 -2.0000 8.123750 14.070748 1.989036
1287 2 -2.0000 8.123750 12.194648 4.592486
1288 2 -2.0000 6.499000 15.008798 4.592486
1289 1 2.0000 6.499000 11.256598 5.206900
1290 1 2.0000 8.123750 14.070748 5.206900
1291 1 2.0000 8.123750 12.194648 7.810350
1292 1 2.0000 6.499000 15.008798 7.810350
1293 2 -2.0000 6.499000 11.256598 7.195936
1294 2 -2.0000 8.123750 14.070748 7.195936
1295 2 -2.0000 8.123750 12.194648 9.799386
1296 2 -2.0000 6.499000 15.008798 9.799386
1297 1 2.0000 6.499000 11.256598 10.413800
1298 1 2.0000 8.123750 14.070748 10.413800
1299 1 2.0000 8.123750 12.194648 13.017250
1300 1 2.0000 6.499000 15.008798 13.017250
1301 2 -2.0000 6.499000 11.256598 12.402836
1302 2 -2.0000 8.123750 14.070748 12.402836
1303 2 -2.0000 8.123750 12.194648 15.006286
1304 2 -2.0000 6.499000 15.008798 15.006286
1305 1 2.0000 6.499000 11.256598 15.620700
1306 1 2.0000 8.123750 14.070748 15.620700
1307 1 2.0000 8.123750 12.194648 18.224150
1308 1 2.0000 6.499000 15.008798 18.224150
1309 2 -2.0000 6.499000 11.256598 17.609736
1310 2 -2.0000 8.123750 14.070748 17.609736
1311 2 -2.0000 8.123750 12.194648 20.213186
1312 2 -2.0000 6.499000 15.008798 20.213186
1313 1 2.0000 6.499000 11.256598 20.827600
1314 1 2.0000 8.123750 14.070748 20.827600
1315 1 2.0000 8.123750 12.194648 23.431050
1316 1 2.0000 6.499000 15.008798 23.431050
1317 2 -2.0000 6.499000 11.256598 22.816636
1318 2 -2.0000 8.123750 14.070748 22.816636
1319 2 -2.0000 8.123750 12.194648 25.420086
1320 2 -2.0000 6.499000 15.008798 25.420086
1321 1 2.0000 6.499000 11.256598 26.034500
1322 1 2.0000 8.123750 14.070748 26.034500
1323 1 2.0000 8.123750 12.194648 28.637950
1324 1 2.0000 6.499000 15.008798 28.637950
1325 2 -2.0000 6.499000 11.256598 28.023536
1326 2 -2.0000 8.123750 14.070748 28.023536
1327 2 -2.0000 8.123750 12.194648 30.626986
1328 2 -2.0000 6.499000 15.008798 30.626986
1329 1 2.0000 6.499000 11.256598 31.241400
1330 1 2.0000 8.123750 14.070748 31.241400
1331 1 2.0000 8.123750 12.194648 33.844850
1332 1 2.0000 6.499000 15.008798 33.844850
1333 2 -2.0000 6.499000 11.256598 33.230436
1334 2 -2.0000 8.123750 14.070748 33.230436
1335 2 -2.0000 8.123750 12.194648 35.833886
1336 2 -2.0000 6.499000 15.008798 35.833886
1337 1 2.0000 6.499000 11.256598 36.448300
1338 1 2.0000 8.123750 14.070748 36.448300
1339 1 2.0000 8.123750 12.194648 39.051750
1340 1 2.0000 6.499000 15.008798 39.051750
1341 2 -2.0000 6.499000 11.256598 38.437336
1342 2 -2.0000 8.123750 14.070748 38.437336
1343 2 -2.0000 8.123750 12.194648 41.040786
1344 2 -2.0000 6.499000 15.008798 41.040786
1345 1 2.0000 6.499000 11.256598 41.655200
1346 1 2.0000 8.123750 14.070748 41.655200
1347 1 2.0000 8.123750 12.194648 44.258650
1348 1 2.0000 6.499000 15.008798 44.258650
1349 2 -2.0000 6.499000 11.256598 43.644236
1350 2 -2.0000 8.123750 14.070748 43.644236
1351 2 -2.0000 8.123750 12.194648 46.247686
1352 2 -2.0000 6.499000 15.008798 46.247686
1353 1 2.0000 6.499000 11.256598 46.862100
1354 1 2.0000 8.123750 14.070748 46.862100
1355 1 2.0000 8.123750 12.194648 49.465550
1356 1 2.0000 6.499000 15.008798 49.465550
1357 2 -2.0000 6.499000 11.256598 48.851136
1358 2 -2.0000 8.123750 14.070748 48.851136
1359 2 -2.0000 8.123750 12.194648 51.454586
1360 2 -2.0000 6.499000 15.008798 51.454586
1361 1 2.0000 6.499000 11.256598 52.069000
1362 1 2.0000 8.123750 14.070748 52.069000
1363 1 2.0000 8.123750 12.194648 54.672450
1364 1 2.0000 6.499000 15.008798 54.672450
1365 2 -2.0000 6.499000 11.256598 54.058036
1366 2 -2.0000 8.123750 14.070748 54.058036
1367 2 -2.0000 8.123750 12.194648 56.661486
1368 2 -2.0000 6.499000 15.008798 56.661486
1369 1 2.0000 6.499000 11.256598 57.275900
1370 1 2.0000 8.123750 14.070748 57.275900
1371 1 2.0000 8.123750 12.194648 59.879350
1372 1 2.0000 6.499000 15.008798 59.879350
1373 2 -2.0000 6.499000 11.256598 59.264936
1374 2 -2.0000 8.123750 14.070748 59.264936
1375 2 -2.0000 8.123750 12.194648 61.868386
1376 2 -2.0000 6.499000 15.008798 61.868386
1377 1 2.0000 6.499000 11.256598 62.482800
1378 1 2.0000 8.123750 14.070748 62.482800
1379 1 2.0000 8.123750 12.194648 65.086250
1380 1 2.0000 6.499000 15.008798 65.086250
1381 2 -2.0000 6.499000 11.256598 64.471836
1382 2 -2.0000 8.123750 14.070748 64.471836
1383 2 -2.0000 8.123750 12.194648 67.075286
1384 2 -2.0000 6.499000 15.008798 67.075286
1385 1 2.0000 6.499000 11.256598 67.689700
1386 1 2.0000 8.123750 14.070748 67.689700
1387 1 2.0000 8.123750 12.194648 70.293150
1388 1 2.0000 6.499000 15.008798 70.293150
1389 2 -2.0000 6.499000 11.256598 69.678736
1390 2 -2.0000 8.123750 14.070748 69.678736
1391 2 -2.0000 8.123750 12.194648 72.282186
1392 2 -2.0000 6.499000 15.008798 72.282186
1393 1 2.0000 6.499000 11.256598 72.896600
1394 1 2.0000 8.123750 14.070748 72.896600
1395 1 2.0000 8.123750 12.194648 75.500050
1396 1 2.0000 6.499000 15.008798 75.500050
1397 2 -2.0000 6.499000 11.256598 74.885636
1398 2 -2.0000 8.123750 14.070748 74.885636
1399 2 -2.0000 8.123750 12.194648 77.489086
1400 2 -2.0000 6.499000 15.008798 77.489086
1401 1 2.0000 6.499000 11.256598 78.103500
1402 1 2.0000 8.123750 14.070748 78.103500
1403 1 2.0000 8.123750 12.194648 80.706950
1404 1 2.0000 6.499000 15.008798 80.706950
1405 2 -2.0000 6.499000 11.256598 80.092536
1406 2 -2.0000 8.123750 14.070748 80.092536
1407 2 -2.0000 8.123750 12.194648 82.695986
1408 2 -2.0000 6.499000 15.008798 82.695986
1409 1 2.0000 6.499000 11.256598 83.310400
1410 1 2.0000 8.123750 14.070748 83.310400
1411 1 2.0000 8.123750 12.194648 85.913850
1412 1 2.0000 6.499000 15.008798 85.913850
1413 2 -2.0000 6.499000 11.256598 85.299436
1414 2 -2.0000 8.123750 14.070748 85.299436
1415 2 -2.0000 8.123750 12.194648 87.902886
1416 2 -2.0000 6.499000 15.008798 87.902886
1417 1 2.0000 6.499000 11.256598 88.517300
1418 1 2.0000 8.123750 14.070748 88.517300
1419 1 2.0000 8.123750 12.194648 91.120750
1420 1 2.0000 6.499000 15.008798 91.120750
1421 2 -2.0000 6.499000 11.256598 90.506336
1422 2 -2.0000 8.123750 14.070748 90.506336
1423 2 -2.0000 8.123750 12.194648 93.109786
1424 2 -2.0000 6.499000 15.008798 93.109786
1425 1 2.0000 6.499000 11.256598 93.724200
1426 1 2.0000 8.123750 14.070748 93.724200
1427 1 2.0000 8.123750 12.194648 96.327650
1428 1 2.0000 6.499000 15.008798 96.327650
1429 2 -2.0000 6.499000 11.256598 95.713236
1430 2 -2.0000 8.123750 14.070748 95.713236
1431 2 -2.0000 8.123750 12.194648 98.316686
1432 2 -2.0000 6.499000 15.008798 98.316686
1433 1 2.0000 6.499000 11.256598 98.931100
1434 1 2.0000 8.123750 14.070748 98.931100
1435 1 2.0000 8.123750 12.194648 101.534550
1436 1 2.0000 6.499000 15.008798 101.534550
1437 2 -2.0000 6.499000 11.256598 100.920136
1438 2 -2.0000 8.123750 14.070748 100.920136
1439 2 -2.0000 8.123750 12.194648 103.523586
1440 2 -2.0000 6.499000 15.008798 103.523586
1441 1 2.0000 9.748500 0.000000 0.000000
1442 1 2.0000 11.373250 2.814150 0.000000
1443 1 2.0000 11.373250 0.938050 2.603450
1444 1 2.0000 9.748500 3.752199 2.603450
1445 2 -2.0000 9.748500 0.000000 1.989036
1446 2 -2.0000 11.373250 2.814150 1.989036
1447 2 -2.0000 11.373250 0.938050 4.592486
1448 2 -2.0000 9.748500 3.752199 4.592486
1449 1 2.0000 9.748500 0.000000 5.206900
1450 1 2.0000 11.373250 2.814150 5.206900
1451 1 2.0000 11.373250 0.938050 7.810350
1452 1 2.0000 9.748500 3.752199 7.810350
1453 2 -2.0000 9.748500 0.000000 7.195936
1454 2 -2.0000 11.373250 2.814150 7.195936
1455 2 -2.0000 11.373250 0.938050 9.799386
1456 2 -2.0000 9.748500 3.752199 9.799386
1457 1 2.0000 9.748500 0.000000 10.413800
1458 1 2.0000 11.373250 2.814150 10.413800
1459 1 2.0000 11.373250 0.938050 13.017250
1460 1 2.0000 9.748500 3.752199 13.017250
1461 2 -2.0000 9.748500 0.000000 12.402836
1462 2 -2.0000 11.373250 2.814150 12.402836
1463 2 -2.0000 11.373250 0.938050 15.006286
1464 2 -2.0000 9.748500 3.752199 15.006286
1465 1 2.0000 9.748500 0.000000 15.620700
1466 1 2.0000 11.373250 2.814150 15.620700
1467 1 2.0000 11.373250 0.938050 18.224150
1468 1 2.0000 9.748500 3.752199 18.224150
1469 2 -2.0000 9.748500 0.000000 17.609736
1470 2 -2.0000 11.373250 2.814150 17.609736
1471 2 -2.0000 11.373250 0.938050 20.213186
1472 2 -2.0000 9.748500 3.752199 20.213186
1473 1 2.0000 9.748500 0.000000 20.827600
1474 1 2.0000 11.373250 2.814150 20.827600
1475 1 2.0000 11.373250 0.938050 23.431050
1476 1 2.0000 9.748500 3.752199 23.431050
1477 2 -2.0000 9.748500 0.000000 22.816636
1478 2 -2.0000 11.373250 2.814150 22.816636
1479 2 -2.0000 11.373250 0.938050 25.420086
1480 2 -2.0000 9.748500 3.752199 25.420086
1481 1 2.0000 9.748500 0.000000 26.034500
1482 1 2.0000 11.373250 2.814150 26.034500
1483 1 2.0000 11.373250 0.938050 28.637950
1484 1 2.0000 9.748500 3.752199 28.637950
1485 2 -2.0000 9.748500 0.000000 28.023536
1486 2 -2.0000 11.373250 2.814150 28.023536
1487 2 -2.0000 11.373250 0.938050 30.626986
1488 2 -2.0000 9.748500 3.752199 30.626986
1489 1 2.0000 9.748500 0.000000 31.241400
1490 1 2.0000 11.373250 2.814150 31.241400
1491 1 2.0000 11.373250 0.938050 33.844850
1492 1 2.0000 9.748500 3.752199 33.844850
1493 2 -2.0000 9.748500 0.000000 33.230436
1494 2 -2.0000 11.373250 2.814150 33.230436
1495 2 -2.0000 11.373250 0.938050 35.833886
1496 2 -2.0000 9.748500 3.752199 35.833886
1497 1 2.0000 9.748500 0.000000 36.448300
1498 1 2.0000 11.373250 2.814150 36.448300
1499 1 2.0000 11.373250 0.938050 39.051750
1500 1 2.0000 9.748500 3.752199 39.051750
1501 2 -2.0000 9.748500 0.000000 38.437336
1502 2 -2.0000 11.373250 2.814150 38.437336
1503 2 -2.0000 11.373250 0.938050 41.040786
1504 2 -2.0000 9.748500 3.752199 41.040786
1505 1 2.0000 9.748500 0.000000 41.655200
1506 1 2.0000 11.373250 2.814150 41.655200
1507 1 2.0000 11.373250 0.938050 44.258650
1508 1 2.0000 9.748500 3.752199 44.258650
1509 2 -2.0000 9.748500 0.000000 43.644236
1510 2 -2.0000 11.373250 2.814150 43.644236
1511 2 -2.0000 11.373250 0.938050 46.247686
1512 2 -2.0000 9.748500 3.752199 46.247686
1513 1 2.0000 9.748500 0.000000 46.862100
1514 1 2.0000 11.373250 2.814150 46.862100
1515 1 2.0000 11.373250 0.938050 49.465550
1516 1 2.0000 9.748500 3.752199 49.465550
1517 2 -2.0000 9.748500 0.000000 48.851136
1518 2 -2.0000 11.373250 2.814150 48.851136
1519 2 -2.0000 11.373250 0.938050 51.454586
1520 2 -2.0000 9.748500 3.752199 51.454586
1521 1 2.0000 9.748500 0.000000 52.069000
1522 1 2.0000 11.373250 2.814150 52.069000
1523 1 2.0000 11.373250 0.938050 54.672450
1524 1 2.0000 9.748500 3.752199 54.672450
1525 2 -2.0000 9.748500 0.000000 54.058036
1526 2 -2.0000 11.373250 2.814150 54.058036
1527 2 -2.0000 11.373250 0.938050 56.661486
1528 2 -2.0000 9.748500 3.752199 56.661486
1529 1 2.0000 9.748500 0.000000 57.275900
1530 1 2.0000 11.373250 2.814150 57.275900
1531 1 2.0000 11.373250 0.938050 59.879350
1532 1 2.0000 9.748500 3.752199 59.879350
1533 2 -2.0000 9.748500 0.000000 59.264936
1534 2 -2.0000 11.373250 2.814150 59.264936
1535 2 -2.0000 11.373250 0.938050 61.868386
1536 2 -2.0000 9.748500 3.752199 61.868386
1537 1 2.0000 9.748500 0.000000 62.482800
1538 1 2.0000 11.373250 2.814150 62.482800
1539 1 2.0000 11.373250 0.938050 65.086250
1540 1 2.0000 9.748500 3.752199 65.086250
1541 2 -2.0000 9.748500 0.000000 64.471836
1542 2 -2.0000 11.373250 2.814150 64.471836
1543 2 -2.0000 11.373250 0.938050 67.075286
1544 2 -2.0000 9.748500 3.752199 67.075286
1545 1 2.0000 9.748500 0.000000 67.689700
1546 1 2.0000 11.373250 2.814150 67.689700
1547 1 2.0000 11.373250 0.938050 70.293150
1548 1 2.0000 9.748500 3.752199 70.293150
1549 2 -2.0000 9.748500 0.000000 69.678736
1550 2 -2.0000 11.373250 2.814150 69.678736
1551 2 -2.0000 11.373250 0.938050 72.282186
1552 2 -2.0000 9.748500 3.752199 72.282186
1553 1 2.0000 9.748500 0.000000 72.896600
1554 1 2.0000 11.373250 2.814150 72.896600
1555 1 2.0000 11.373250 0.938050 75.500050
1556 1 2.0000 9.748500 3.752199 75.500050
1557 2 -2.0000 9.748500 0.000000 74.885636
1558 2 -2.0000 11.373250 2.814150 74.885636
1559 2 -2.0000 11.373250 0.938050 77.489086
1560 2 -2.0000 9.748500 3.752199 77.489086
1561 1 2.0000 9.748500 0.000000 78.103500
1562 1 2.0000 11.373250 2.814150 78.103500
1563 1 2.0000 11.373250 0.938050 80.706950
1564 1 2.0000 9.748500 3.752199 80.706950
1565 2 -2.0000 9.748500 0.000000 80.092536
1566 2 -2.0000 11.373250 2.814150 80.092536
1567 2 -2.0000 11.373250 0.938050 82.695986
1568 2 -2.0000 9.748500 3.752199 82.695986
1569 1 2.0000 9.748500 0.000000 83.310400
1570 1 2.0000 11.373250 2.814150 83.310400
1571 1 2.0000 11.373250 0.938050 85.913850
1572 1 2.0000 9.748500 3.752199 85.913850
1573 2 -2.0000 9.748500 0.000000 85.299436
1574 2 -2.0000 11.373250 2.814150 85.299436
1575 2 -2.0000 11.373250 0.938050 87.902886
1576 2 -2.0000 9.748500 3.752199 87.902886
1577 1 2.0000 9.748500 0.000000 88.517300
1578 1 2.0000 11.373250 2.814150 88.517300
1579 1 2.0000 11.373250 0.938050 91.120750
1580 1 2.0000 9.748500 3.752199 91.120750
1581 2 -2.0000 9.748500 0.000000 90.506336
1582 2 -2.0000 11.373250 2.814150 90.506336
1583 2 -2.0000 11.373250 0.938050 93.109786
1584 2 -2.0000 9.748500 3.752199 93.109786
1585 1 2.0000 9.748500 0.000000 93.724200
1586 1 2.0000 11.373250 2.814150 93.724200
1587 1 2.0000 11.373250 0.938050 96.327650
1588 1 2.0000 9.748500 3.752199 96.327650
1589 2 -2.0000 9.748500 0.000000 95.713236
1590 2 -2.0000 11.373250 2.814150 95.713236
1591 2 -2.0000 11.373250 0.938050 98.316686
1592 2 -2.0000 9.748500 3.752199 98.316686
1593 1 2.0000 9.748500 0.000000 98.931100
1594 1 2.0000 11.373250 2.814150 98.931100
1595 1 2.0000 11.373250 0.938050 101.534550
1596 1 2.0000 9.748500 3.752199 101.534550
1597 2 -2.0000 9.748500 0.000000 100.920136
1598 2 -2.0000 11.373250 2.814150 100.920136
1599 2 -2.0000 11.373250 0.938050 103.523586
1600 2 -2.0000 9.748500 3.752199 103.523586
1601 1 2.0000 9.748500 5.628299 0.000000
1602 1 2.0000 11.373250 8.442449 0.000000
1603 1 2.0000 11.373250 6.566349 2.603450
1604 1 2.0000 9.748500 9.380498 2.603450
1605 2 -2.0000 9.748500 5.628299 1.989036
1606 2 -2.0000 11.373250 8.442449 1.989036
1607 2 -2.0000 11.373250 6.566349 4.592486
1608 2 -2.0000 9.748500 9.380498 4.592486
1609 1 2.0000 9.748500 5.628299 5.206900
1610 1 2.0000 11.373250 8.442449 5.206900
1611 1 2.0000 11.373250 6.566349 7.810350
1612 1 2.0000 9.748500 9.380498 7.810350
1613 2 -2.0000 9.748500 5.628299 7.195936
1614 2 -2.0000 11.373250 8.442449 7.195936
1615 2 -2.0000 11.373250 6.566349 9.799386
1616 2 -2.0000 9.748500 9.380498 9.799386
1617 1 2.0000 9.748500 5.628299 10.413800
1618 1 2.0000 11.373250 8.442449 10.413800
1619 1 2.0000 11.373250 6.566349 13.017250
1620 1 2.0000 9.748500 9.380498 13.017250
1621 2 -2.0000 9.748500 5.628299 12.402836
1622 2 -2.0000 11.373250 8.442449 12.402836
1623 2 -2.0000 11.373250 6.566349 15.006286
1624 2 -2.0000 9.748500 9.380498 15.006286
1625 1 2.0000 9.748500 5.628299 15.620700
1626 1 2.0000 11.373250 8.442449 15.620700
1627 1 2.0000 11.373250 6.566349 18.224150
1628 1 2.0000 9.748500 9.380498 18.224150
1629 2 -2.0000 9.748500 5.628299 17.609736
1630 2 -2.0000 11.373250 8.442449 17.609736
1631 2 -2.0000 11.373250 6.566349 20.213186
1632 2 -2.0000 9.748500 9.380498 20.213186
1633 1 2.0000 9.748500 5.628299 20.827600
1634 1 2.0000 11.373250 8.442449 20.827600
1635 1 2.0000 11.373250 6.566349 23.431050
1636 1 2.0000 9.748500 9.380498 23.431050
1637 2 -2.0000 9.748500 5.628299 22.816636
1638 2 -2.0000 11.373250 8.442449 22.816636
1639 2 -2.0000 11.373250 6.566349 25.420086
1640 2 -2.0000 9.748500 9.380498 25.420086
1641 1 2.0000 9.748500 5.628299 26.034500
1642 1 2.0000 11.373250 8.442449 26.034500
1643 1 2.0000 11.373250 6.566349 28.637950
1644 1 2.0000 9.748500 9.380498 28.637950
1645 2 -2.0000 9.748500 5.628299 28.023536
1646 2 -2.0000 11.373250 8.442449 28.023536
1647 2 -2.0000 11.373250 6.566349 30.626986
1648 2 -2.0000 9.748500 9.380498 30.626986
1649 1 2.0000 9.748500 5.628299 31.241400
1650 1 2.0000 11.373250 8.442449 31.241400
1651 1 2.0000 11.373250 6.566349 33.844850
1652 1 2.0000 9.748500 9.380498 33.844850
1653 2 -2.0000 9.748500 5.628299 33.230436
1654 2 -2.0000 11.373250 8.442449 33.230436
1655 2 -2.0000 11.373250 6.566349 35.833886
1656 2 -2.0000 9.748500 9.380498 35.833886
1657 1 2.0000 9.748500 5.628299 36.448300
1658 1 2.0000 11.373250 8.442449 36.448300
1659 1 2.0000 11.373250 6.566349 39.051750
1660 1 2.0000 9.748500 9.380498 39.051750
1661 2 -2.0000 9.748500 5.628299 38.437336
1662 2 -2.0000 11.373250 8.442449 38.437336
1663 2 -2.0000 11.373250 6.566349 41.040786
1664 2 -2.0000 9.748500 9.380498 41.040786
1665 1 2.0000 9.748500 5.628299 41.655200
1666 1 2.0000 11.373250 8.442449 41.655200
1667 1 2.0000 11.373250 6.566349 44.258650
1668 1 2.0000 9.748500 9.380498 44.258650
1669 2 -2.0000 9.748500 5.628299 43.644236
1670 2 -2.0000 11.373250 8.442449 43.644236
1671 2 -2.0000 11.373250 6.566349 46.247686
1672 2 -2.0000 9.748500 9.380498 46.247686
1673 1 2.0000 9.748500 5.628299 46.862100
1674 1 2.0000 11.373250 8.442449 46.862100
1675 1 2.0000 11.373250 6.566349 49.465550
1676 1 2.0000 9.748500 9.380498 49.465550
1677 2 -2.0000 9.748500 5.628299 48.851136
1678 2 -2.0000 11.373250 8.442449 48.851136
1679 2 -2.0000 11.373250 6.566349 51.454586
1680 2 -2.0000 9.748500 9.380498 51.454586
1681 1 2.0000 9.748500 5.628299 52.069000
1682 1 2.0000 11.373250 8.442449 52.069000
1683 1 2.0000 11.373250 6.566349 54.672450
1684 1 2.0000 9.748500 9.380498 54.672450
1685 2 -2.0000 9.748500 5.628299 54.058036
1686 2 -2.0000 11.373250 8.442449 54.058036
1687 2 -2.0000 11.373250 6.566349 56.661486
1688 2 -2.0000 9.748500 9.380498 56.661486
1689 1 2.0000 9.748500 5.628299 57.275900
1690 1 2.0000 11.373250 8.442449 57.275900
1691 1 2.0000 11.373250 6.566349 59.879350
1692 1 2.0000 9.748500 9.380498 59.879350
1693 2 -2.0000 9.748500 5.628299 59.264936
1694 2 -2.0000 11.373250 8.442449 59.264936
1695 2 -2.0000 11.373250 6.566349 61.868386
1696 2 -2.0000 9.748500 9.380498 61.868386
1697 1 2.0000 9.748500 5.628299 62.482800
1698 1 2.0000 11.373250 8.442449 62.482800
1699 1 2.0000 11.373250 6.566349 65.086250
1700 1 2.0000 9.748500 9.380498 65.086250
1701 2 -2.0000 9.748500 5.628299 64.471836
1702 2 -2.0000 11.373250 8.442449 64.471836
1703 2 -2.0000 11.373250 6.566349 67.075286
1704 2 -2.0000 9.748500 9.380498 67.075286
1705 1 2.0000 9.748500 5.628299 67.689700
1706 1 2.0000 11.373250 8.442449 67.689700
1707 1 2.0000 11.373250 6.566349 70.293150
1708 1 2.0000 9.748500 9.380498 70.293150
1709 2 -2.0000 9.748500 5.628299 69.678736
1710 2 -2.0000 11.373250 8.442449 69.678736
1711 2 -2.0000 11.373250 6.566349 72.282186
1712 2 -2.0000 9.748500 9.380498 72.282186
1713 1 2.0000 9.748500 5.628299 72.896600
1714 1 2.0000 11.373250 8.442449 72.896600
1715 1 2.0000 11.373250 6.566349 75.500050
1716 1 2.0000 9.748500 9.380498 75.500050
1717 2 -2.0000 9.748500 5.628299 74.885636
1718 2 -2.0000 11.373250 8.442449 74.885636
1719 2 -2.0000 11.373250 6.566349 77.489086
1720 2 -2.0000 9.748500 9.380498 77.489086
1721 1 2.0000 9.748500 5.628299 78.103500
1722 1 2.0000 11.373250 8.442449 78.103500
1723 1 2.0000 11.373250 6.566349 80.706950
1724 1 2.0000 9.748500 9.380498 80.706950
1725 2 -2.0000 9.748500 5.628299 80.092536
1726 2 -2.0000 11.373250 8.442449 80.092536
1727 2 -2.0000 11.373250 6.566349 82.695986
1728 2 -2.0000 9.748500 9.380498 82.695986
1729 1 2.0000 9.748500 5.628299 83.310400
1730 1 2.0000 11.373250 8.442449 83.310400
1731 1 2.0000 11.373250 6.566349 85.913850
1732 1 2.0000 9.748500 9.380498 85.913850
1733 2 -2.0000 9.748500 5.628299 85.299436
1734 2 -2.0000 11.373250 8.442449 85.299436
1735 2 -2.0000 11.373250 6.566349 87.902886
1736 2 -2.0000 9.748500 9.380498 87.902886
1737 1 2.0000 9.748500 5.628299 88.517300
1738 1 2.0000 11.373250 8.442449 88.517300
1739 1 2.0000 11.373250 6.566349 91.120750
1740 1 2.0000 9.748500 9.380498 91.120750
1741 2 -2.0000 9.748500 5.628299 90.506336
1742 2 -2.0000 11.373250 8.442449 90.506336
1743 2 -2.0000 11.373250 6.566349 93.109786
1744 2 -2.0000 9.748500 9.380498 93.109786
1745 1 2.0000 9.748500 5.628299 93.724200
1746 1 2.0000 11.373250 8.442449 93.724200
1747 1 2.0000 11.373250 6.566349 96.327650
1748 1 2.0000 9.748500 9.380498 96.327650
1749 2 -2.0000 9.748500 5.628299 95.713236
1750 2 -2.0000 11.373250 8.442449 95.713236
1751 2 -2.0000 11.373250 6.566349 98.316686
1752 2 -2.0000 9.748500 9.380498 98.316686
1753 1 2.0000 9.748500 5.628299 98.931100
1754 1 2.0000 11.373250 8.442449 98.931100
1755 1 2.0000 11.373250 6.566349 101.534550
1756 1 2.0000 9.748500 9.380498 101.534550
1757 2 -2.0000 9.748500 5.628299 100.920136
1758 2 -2.0000 11.373250 8.442449 100.920136
1759 2 -2.0000 11.373250 6.566349 103.523586
1760 2 -2.0000 9.748500 9.380498 103.523586
1761 1 2.0000 9.748500 11.256598 0.000000
1762 1 2.0000 11.373250 14.070748 0.000000
1763 1 2.0000 11.373250 12.194648 2.603450
1764 1 2.0000 9.748500 15.008798 2.603450
1765 2 -2.0000 9.748500 11.256598 1.989036
1766 2 -2.0000 11.373250 14.070748 1.989036
1767 2 -2.0000 11.373250 12.194648 4.592486
1768 2 -2.0000 9.748500 15.008798 4.592486
1769 1 2.0000 9.748500 11.256598 5.206900
1770 1 2.0000 11.373250 14.070748 5.206900
1771 1 2.0000 11.373250 12.194648 7.810350
1772 1 2.0000 9.748500 15.008798 7.810350
1773 2 -2.0000 9.748500 11.256598 7.195936
1774 2 -2.0000 11.373250 14.070748 7.195936
1775 2 -2.0000 11.373250 12.194648 9.799386
1776 2 -2.0000 9.748500 15.008798 9.799386
1777 1 2.0000 9.748500 11.256598 10.413800
1778 1 2.0000 11.373250 14.070748 10.413800
1779 1 2.0000 11.373250 12.194648 13.017250
1780 1 2.0000 9.748500 15.008798 13.017250
1781 2 -2.0000 9.748500 11.256598 12.402836
1782 2 -2.0000 11.373250 14.070748 12.402836
1783 2 -2.0000 11.373250 12.194648 15.006286
1784 2 -2.0000 9.748500 15.008798 15.006286
1785 1 2.0000 9.748500 11.256598 15.620700
1786 1 2.0000 11.373250 14.070748 15.620700
1787 1 2.0000 11.373250 12.194648 18.224150
1788 1 2.0000 9.748500 15.008798 18.224150
1789 2 -2.0000 9.748500 11.256598 17.609736
1790 2 -2.0000 11.373250 14.070748 17.609736
1791 2 -2.0000 11.373250 12.194648 20.213186
1792 2 -2.0000 9.748500 15.008798 20.213186
1793 1 2.0000 9.748500 11.256598 20.827600
1794 1 2.0000 11.373250 14.070748 20.827600
1795 1 2.0000 11.373250 12.194648 23.431050
1796 1 2.0000 9.748500 15.008798 23.431050
1797 2 -2.0000 9.748500 11.256598 22.816636
1798 2 -2.0000 11.373250 14.070748 22.816636
1799 2 -2.0000 11.373250 12.194648 25.420086
1800 2 -2.0000 9.748500 15.008798 25.420086
1801 1 2.0000 9.748500 11.256598 26.034500
1802 1 2.0000 11.373250 14.070748 26.034500
1803 1 2.0000 11.373250 12.194648 28.637950
1804 1 2.0000 9.748500 15.008798 28.637950
1805 2 -2.0000 9.748500 11.256598 28.023536
1806 2 -2.0000 11.373250 14.070748 28.023536
1807 2 -2.0000 11.373250 12.194648 30.626986
1808 2 -2.0000 9.748500 15.008798 30.626986
1809 1 2.0000 9.748500 11.256598 31.241400
1810 1 2.0000 11.373250 14.070748 31.241400
1811 1 2.0000 11.373250 12.194648 33.844850
1812 1 2.0000 9.748500 15.008798 33.844850
1813 2 -2.0000 9.748500 11.256598 33.230436
1814 2 -2.0000 11.373250 14.070748 33.230436
1815 2 -2.0000 11.373250 12.194648 35.833886
1816 2 -2.0000 9.748500 15.008798 35.833886
1817 1 2.0000 9.748500 11.256598 36.448300
1818 1 2.0000 11.373250 14.070748 36.448300
1819 1 2.0000 11.373250 12.194648 39.051750
1820 1 2.0000 9.748500 15.008798 39.051750
1821 2 -2.0000 9.748500 11.256598 38.437336
1822 2 -2.0000 11.373250 14.070748 38.437336
1823 2 -2.0000 11.373250 12.194648 41.040786
1824 2 -2.0000 9.748500 15.008798 41.040786
1825 1 2.0000 9.748500 11.256598 41.655200
1826 1 2.0000 11.373250 14.070748 41.655200
1827 1 2.0000 11.373250 12.194648 44.258650
1828 1 2.0000 9.748500 15.008798 44.258650
1829 2 -2.0000 9.748500 11.256598 43.644236
1830 2 -2.0000 11.373250 14.070748 43.644236
1831 2 -2.0000 11.373250 12.194648 46.247686
1832 2 -2.0000 9.748500 15.008798 46.247686
1833 1 2.0000 9.748500 11.256598 46.862100
1834 1 2.0000 11.373250 14.070748 46.862100
1835 1 2.0000 11.373250 12.194648 49.465550
1836 1 2.0000 9.748500 15.008798 49.465550
1837 2 -2.0000 9.748500 11.256598 48.851136
1838 2 -2.0000 11.373250 14.070748 48.851136
1839 2 -2.0000 11.373250 12.194648 51.454586
1840 2 -2.0000 9.748500 15.008798 51.454586
1841 1 2.0000 9.748500 11.256598 52.069000
1842 1 2.0000 11.373250 14.070748 52.069000
1843 1 2.0000 11.373250 12.194648 54.672450
1844 1 2.0000 9.748500 15.008798 54.672450
1845 2 -2.0000 9.748500 11.256598 54.058036
1846 2 -2.0000 11.373250 14.070748 54.058036
1847 2 -2.0000 11.373250 12.194648 56.661486
1848 2 -2.0000 9.748500 15.008798 56.661486
1849 1 2.0000 9.748500 11.256598 57.275900
1850 1 2.0000 11.373250 14.070748 57.275900
1851 1 2.0000 11.373250 12.194648 59.879350
1852 1 2.0000 9.748500 15.008798 59.879350
1853 2 -2.0000 9.748500 11.256598 59.264936
1854 2 -2.0000 11.373250 14.070748 59.264936
1855 2 -2.0000 11.373250 12.194648 61.868386
1856 2 -2.0000 9.748500 15.008798 61.868386
1857 1 2.0000 9.748500 11.256598 62.482800
1858 1 2.0000 11.373250 14.070748 62.482800
1859 1 2.0000 11.373250 12.194648 65.086250
1860 1 2.0000 9.748500 15.008798 65.086250
1861 2 -2.0000 9.748500 11.256598 64.471836
1862 2 -2.0000 11.373250 14.070748 64.471836
1863 2 -2.0000 11.373250 12.194648 67.075286
1864 2 -2.0000 9.748500 15.008798 67.075286
1865 1 2.0000 9.748500 11.256598 67.689700
1866 1 2.0000 11.373250 14.070748 67.689700
1867 1 2.0000 11.373250 12.194648 70.293150
1868 1 2.0000 9.748500 15.008798 70.293150
1869 2 -2.0000 9.748500 11.256598 69.678736
1870 2 -2.0000 11.373250 14.070748 69.678736
1871 2 -2.0000 11.373250 12.194648 72.282186
1872 2 -2.0000 9.748500 15.008798 72.282186
1873 1 2.0000 9.748500 11.256598 72.896600
1874 1 2.0000 11.373250 14.070748 72.896600
1875 1 2.0000 11.373250 12.194648 75.500050
1876 1 2.0000 9.748500 15.008798 75.500050
1877 2 -2.0000 9.748500 11.256598 74.885636
1878 2 -2.0000 11.373250 14.070748 74.885636
1879 2 -2.0000 11.373250 12.194648 77.489086
1880 2 -2.0000 9.748500 15.008798 77.489086
1881 1 2.0000 9.748500 11.256598 78.103500
1882 1 2.0000 11.373250 14.070748 78.103500
1883 1 2.0000 11.373250 12.194648 80.706950
1884 1 2.0000 9.748500 15.008798 80.706950
1885 2 -2.0000 9.748500 11.256598 80.092536
1886 2 -2.0000 11.373250 14.070748 80.092536
1887 2 -2.0000 11.373250 12.194648 82.695986
1888 2 -2.0000 9.748500 15.008798 82.695986
1889 1 2.0000 9.748500 11.256598 83.310400
1890 1 2.0000 11.373250 14.070748 83.310400
1891 1 2.0000 11.373250 12.194648 85.913850
1892 1 2.0000 9.748500 15.008798 85.913850
1893 2 -2.0000 9.748500 11.256598 85.299436
1894 2 -2.0000 11.373250 14.070748 85.299436
1895 2 -2.0000 11.373250 12.194648 87.902886
1896 2 -2.0000 9.748500 15.008798 87.902886
1897 1 2.0000 9.748500 11.256598 88.517300
1898 1 2.0000 11.373250 14.070748 88.517300
1899 1 2.0000 11.373250 12.194648 91.120750
1900 1 2.0000 9.748500 15.008798 91.120750
1901 2 -2.0000 9.748500 11.256598 90.506336
1902 2 -2.0000 11.373250 14.070748 90.506336
1903 2 -2.0000 11.373250 12.194648 93.109786
1904 2 -2.0000 9.748500 15.008798 93.109786
1905 1 2.0000 9.748500 11.256598 93.724200
1906 1 2.0000 11.373250 14.070748 93.724200
1907 1 2.0000 11.373250 12.194648 96.327650
1908 1 2.0000 9.748500 15.008798 96.327650
1909 2 -2.0000 9.748500 11.256598 95.713236
1910 2 -2.0000 11.373250 14.070748 95.713236
1911 2 -2.0000 11.373250 12.194648 98.316686
1912 2 -2.0000 9.748500 15.008798 98.316686
1913 1 2.0000 9.748500 11.256598 98.931100
1914 1 2.0000 11.373250 14.070748 98.931100
1915 1 2.0000 11.373250 12.194648 101.534550
1916 1 2.0000 9.748500 15.008798 101.534550
1917 2 -2.0000 9.748500 11.256598 100.920136
1918 2 -2.0000 11.373250 14.070748 100.920136
1919 2 -2.0000 11.373250 12.194648 103.523586
1920 2 -2.0000 9.748500 15.008798 103.523586
