Monolayer black phosphorus (type1=B bottom pucker, type2=T top pucker)

2112 atoms
2 atom types

0.0 52.736000 xlo xhi
0.0 149.952000 ylo yhi
0.0 32.104598 zlo zhi

Masses

1 30.973762
2 30.973762

Atoms # atomic

1 1 0.000000 0.000000 15.000000
2 1 1.648000 1.493410 15.000000
3 2 1.648000 2.272000 17.104598
4 2 0.000000 3.765410 17.104598
5 1 0.000000 4.544000 15.000000
6 1 1.648000 6.037410 15.000000
7 2 1.648000 6.816000 17.104598
8 2 0.000000 8.309410 17.104598
9 1 0.000000 9.088000 15.000000
10 1 1.648000 10.581410 15.000000
11 2 1.648000 11.360000 17.104598
12 2 0.000000 12.853410 17.104598
13 1 0.000000 13.632000 15.000000
14 1 1.648000 15.125410 15.000000
15 2 1.648000 15.904000 17.104598
16 2 0.000000 17.397410 17.104598
17 1 0.000000 18.176000 15.000000
18 1 1.648000 19.669410 15.000000
19 2 1.648000 20.448000 17.104598
20 2 0.000000 21.941410 17.104598
21 1 0.000000 22.720000 15.000000
22 1 1.648000 24.213410 15.000000
23 2 1.648000 24.992000 17.104598
24 2 0.000000 26.485410 17.104598
25 1 0.000000 27.264000 15.000000
26 1 1.648000 28.757410 15.000000
27 2 1.648000 29.536000 17.104598
28 2 0.000000 31.029410 17.104598
29 1 0.000000 31.808000 15.000000
30 1 1.648000 33.301410 15.000000
31 2 1.648000 34.080000 17.104598
32 2 0.000000 35.573410 17.104598
33 1 0.000000 36.352000 15.000000
34 1 1.648000 37.845410 15.000000
35 2 1.648000 38.624000 17.104598
36 2 0.000000 40.117410 17.104598
37 1 0.000000 40.896000 15.000000
38 1 1.648000 42.389410 15.000000
39 2 1.648000 43.168000 17.104598
40 2 0.000000 44.661410 17.104598
41 1 0.000000 45.440000 15.000000
42 1 1.648000 46.933410 15.000000
43 2 1.648000 47.712000 17.104598
44 2 0.000000 49.205410 17.104598
45 1 0.000000 49.984000 15.000000
46 1 1.648000 51.477410 15.000000
47 2 1.648000 52.256000 17.104598
48 2 0.000000 53.749410 17.104598
49 1 0.000000 54.528000 15.000000
50 1 1.648000 56.021410 15.000000
51 2 1.648000 56.800000 17.104598
52 2 0.000000 58.293410 17.104598
53 1 0.000000 59.072000 15.000000
54 1 1.648000 60.565410 15.000000
55 2 1.648000 61.344000 17.104598
56 2 0.000000 62.837410 17.104598
57 1 0.000000 63.616000 15.000000
58 1 1.648000 65.109410 15.000000
59 2 1.648000 65.888000 17.104598
60 2 0.000000 67.381410 17.104598
61 1 0.000000 68.160000 15.000000
62 1 1.648000 69.653410 15.000000
63 2 1.648000 70.432000 17.104598
64 2 0.000000 71.925410 17.104598
65 1 0.000000 72.704000 15.000000
66 1 1.648000 74.197410 15.000000
67 2 1.648000 74.976000 17.104598
68 2 0.000000 76.469410 17.104598
69 1 0.000000 77.248000 15.000000
70 1 1.648000 78.741410 15.000000
71 2 1.648000 79.520000 17.104598
72 2 0.000000 81.013410 17.104598
73 1 0.000000 81.792000 15.000000
74 1 1.648000 83.285410 15.000000
75 2 1.648000 84.064000 17.104598
76 2 0.000000 85.557410 17.104598
77 1 0.000000 86.336000 15.000000
78 1 1.648000 87.829410 15.000000
79 2 1.648000 88.608000 17.104598
80 2 0.000000 90.101410 17.104598
81 1 0.000000 90.880000 15.000000
82 1 1.648000 92.373410 15.000000
83 2 1.648000 93.152000 17.104598
84 2 0.000000 94.645410 17.104598
85 1 0.000000 95.424000 15.000000
86 1 1.648000 96.917410 15.000000
87 2 1.648000 97.696000 17.104598
88 2 0.000000 99.189410 17.104598
89 1 0.000000 99.968000 15.000000
90 1 1.648000 101.461410 15.000000
91 2 1.648000 102.240000 17.104598
92 2 0.000000 103.733410 17.104598
93 1 0.000000 104.512000 15.000000
94 1 1.648000 106.005410 15.000000
95 2 1.648000 106.784000 17.104598
96 2 0.000000 108.277410 17.104598
97 1 0.000000 109.056000 15.000000
98 1 1.648000 110.549410 15.000000
99 2 1.648000 111.328000 17.104598
100 2 0.000000 112.821410 17.104598
101 1 0.000000 113.600000 15.000000
102 1 1.648000 115.093410 15.000000
103 2 1.648000 115.872000 17.104598
104 2 0.000000 117.365410 17.104598
105 1 0.000000 118.144000 15.000000
106 1 1.648000 119.637410 15.000000
107 2 1.648000 120.416000 17.104598
108 2 0.000000 121.909410 17.104598
109 1 0.000000 122.688000 15.000000
110 1 1.648000 124.181410 15.000000
111 2 1.648000 124.960000 17.104598
112 2 0.000000 126.453410 17.104598
113 1 0.000000 127.232000 15.000000
114 1 1.648000 128.725410 15.000000
115 2 1.648000 129.504000 17.104598
116 2 0.000000 130.997410 17.104598
117 1 0.000000 131.776000 15.000000
118 1 1.648000 133.269410 15.000000
119 2 1.648000 134.048000 17.104598
120 2 0.000000 135.541410 17.104598
121 1 0.000000 136.320000 15.000000
122 1 1.648000 137.813410 15.000000
123 2 1.648000 138.592000 17.104598
124 2 0.000000 140.085410 17.104598
125 1 0.000000 140.864000 15.000000
126 1 1.648000 142.357410 15.000000
127 2 1.648000 143.136000 17.104598
128 2 0.000000 144.629410 17.104598
129 1 0.000000 145.408000 15.000000
130 1 1.648000 146.901410 15.000000
131 2 1.648000 147.680000 17.104598
132 2 0.000000 149.173410 17.104598
133 1 3.296000 0.000000 15.000000
134 1 4.944000 1.493410 15.000000
135 2 4.944000 2.272000 17.104598
136 2 3.296000 3.765410 17.104598
137 1 3.296000 4.544000 15.000000
138 1 4.944000 6.037410 15.000000
139 2 4.944000 6.816000 17.104598
140 2 3.296000 8.309410 17.104598
141 1 3.296000 9.088000 15.000000
142 1 4.944000 10.581410 15.000000
143 2 4.944000 11.360000 17.104598
144 2 3.296000 12.853410 17.104598
145 1 3.296000 13.632000 15.000000
146 1 4.944000 15.125410 15.000000
147 2 4.944000 15.904000 17.104598
148 2 3.296000 17.397410 17.104598
149 1 3.296000 18.176000 15.000000
150 1 4.944000 19.669410 15.000000
151 2 4.944000 20.448000 17.104598
152 2 3.296000 21.941410 17.104598
153 1 3.296000 22.720000 15.000000
154 1 4.944000 24.213410 15.000000
155 2 4.944000 24.992000 17.104598
156 2 3.296000 26.485410 17.104598
157 1 3.296000 27.264000 15.000000
158 1 4.944000 28.757410 15.000000
159 2 4.944000 29.536000 17.104598
160 2 3.296000 31.029410 17.104598
161 1 3.296000 31.808000 15.000000
162 1 4.944000 33.301410 15.000000
163 2 4.944000 34.080000 17.104598
164 2 3.296000 35.573410 17.104598
165 1 3.296000 36.352000 15.000000
166 1 4.944000 37.845410 15.000000
167 2 4.944000 38.624000 17.104598
168 2 3.296000 40.117410 17.104598
169 1 3.296000 40.896000 15.000000
170 1 4.944000 42.389410 15.000000
171 2 4.944000 43.168000 17.104598
172 2 3.296000 44.661410 17.104598
173 1 3.296000 45.440000 15.000000
174 1 4.944000 46.933410 15.000000
175 2 4.944000 47.712000 17.104598
176 2 3.296000 49.205410 17.104598
177 1 3.296000 49.984000 15.000000
178 1 4.944000 51.477410 15.000000
179 2 4.944000 52.256000 17.104598
180 2 3.296000 53.749410 17.104598
181 1 3.296000 54.528000 15.000000
182 1 4.944000 56.021410 15.000000
183 2 4.944000 56.800000 17.104598
184 2 3.296000 58.293410 17.104598
185 1 3.296000 59.072000 15.000000
186 1 4.944000 60.565410 15.000000
187 2 4.944000 61.344000 17.104598
188 2 3.296000 62.837410 17.104598
189 1 3.296000 63.616000 15.000000
190 1 4.944000 65.109410 15.000000
191 2 4.944000 65.888000 17.104598
192 2 3.296000 67.381410 17.104598
193 1 3.296000 68.160000 15.000000
194 1 4.944000 69.653410 15.000000
195 2 4.944000 70.432000 17.104598
196 2 3.296000 71.925410 17.104598
197 1 3.296000 72.704000 15.000000
198 1 4.944000 74.197410 15.000000
199 2 4.944000 74.976000 17.104598
200 2 3.296000 76.469410 17.104598
201 1 3.296000 77.248000 15.000000
202 1 4.944000 78.741410 15.000000
203 2 4.944000 79.520000 17.104598
204 2 3.296000 81.013410 17.104598
205 1 3.296000 81.792000 15.000000
206 1 4.944000 83.285410 15.000000
207 2 4.944000 84.064000 17.104598
208 2 3.296000 85.557410 17.104598
209 1 3.296000 86.336000 15.000000
210 1 4.944000 87.829410 15.000000
211 2 4.944000 88.608000 17.104598
212 2 3.296000 90.101410 17.104598
213 1 3.296000 90.880000 15.000000
214 1 4.944000 92.373410 15.000000
215 2 4.944000 93.152000 17.104598
216 2 3.296000 94.645410 17.104598
217 1 3.296000 95.424000 15.000000
218 1 4.944000 96.917410 15.000000
219 2 4.944000 97.696000 17.104598
220 2 3.296000 99.189410 17.104598
221 1 3.296000 99.968000 15.000000
222 1 4.944000 101.461410 15.000000
223 2 4.944000 102.240000 17.104598
224 2 3.296000 103.733410 17.104598
225 1 3.296000 104.512000 15.000000
226 1 4.944000 106.005410 15.000000
227 2 4.944000 106.784000 17.104598
228 2 3.296000 108.277410 17.104598
229 1 3.296000 109.056000 15.000000
230 1 4.944000 110.549410 15.000000
231 2 4.944000 111.328000 17.104598
232 2 3.296000 112.821410 17.104598
233 1 3.296000 113.600000 15.000000
234 1 4.944000 115.093410 15.000000
235 2 4.944000 115.872000 17.104598
236 2 3.296000 117.365410 17.104598
237 1 3.296000 118.144000 15.000000
238 1 4.944000 119.637410 15.000000
239 2 4.944000 120.416000 17.104598
240 2 3.296000 121.909410 17.104598
241 1 3.296000 122.688000 15.000000
242 1 4.944000 124.181410 15.000000
243 2 4.944000 124.960000 17.104598
244 2 3.296000 126.453410 17.104598
245 1 3.296000 127.232000 15.000000
246 1 4.944000 128.725410 15.000000
247 2 4.944000 129.504000 17.104598
248 2 3.296000 130.997410 17.104598
249 1 3.296000 131.776000 15.000000
250 1 4.944000 133.269410 15.000000
251 2 4.944000 134.048000 17.104598
252 2 3.296000 135.541410 17.104598
253 1 3.296000 136.320000 15.000000
254 1 4.944000 137.813410 15.000000
255 2 4.944000 138.592000 17.104598
256 2 3.296000 140.085410 17.104598
257 1 3.296000 140.864000 15.000000
258 1 4.944000 142.357410 15.000000
259 2 4.944000 143.136000 17.104598
260 2 3.296000 144.629410 17.104598
261 1 3.296000 145.408000 15.000000
262 1 4.944000 146.901410 15.000000
263 2 4.944000 147.680000 17.104598
264 2 3.296000 149.173410 17.104598
265 1 6.592000 0.000000 15.000000
266 1 8.240000 1.493410 15.000000
267 2 8.240000 2.272000 17.104598
268 2 6.592000 3.765410 17.104598
269 1 6.592000 4.544000 15.000000
270 1 8.240000 6.037410 15.000000
271 2 8.240000 6.816000 17.104598
272 2 6.592000 8.309410 17.104598
273 1 6.592000 9.088000 15.000000
274 1 8.240000 10.581410 15.000000
275 2 8.240000 11.360000 17.104598
276 2 6.592000 12.853410 17.104598
277 1 6.592000 13.632000 15.000000
278 1 8.240000 15.125410 15.000000
279 2 8.240000 15.904000 17.104598
280 2 6.592000 17.397410 17.104598
281 1 6.592000 18.176000 15.000000
282 1 8.240000 19.669410 15.000000
283 2 8.240000 20.448000 17.104598
284 2 6.592000 21.941410 17.104598
285 1 6.592000 22.720000 15.000000
286 1 8.240000 24.213410 15.000000
287 2 8.240000 24.992000 17.104598
288 2 6.592000 26.485410 17.104598
289 1 6.592000 27.264000 15.000000
290 1 8.240000 28.757410 15.000000
291 2 8.240000 29.536000 17.104598
292 2 6.592000 31.029410 17.104598
293 1 6.592000 31.808000 15.000000
294 1 8.240000 33.301410 15.000000
295 2 8.240000 34.080000 17.104598
296 2 6.592000 35.573410 17.104598
297 1 6.592000 36.352000 15.000000
298 1 8.240000 37.845410 15.000000
299 2 8.240000 38.624000 17.104598
300 2 6.592000 40.117410 17.104598
301 1 6.592000 40.896000 15.000000
302 1 8.240000 42.389410 15.000000
303 2 8.240000 43.168000 17.104598
304 2 6.592000 44.661410 17.104598
305 1 6.592000 45.440000 15.000000
306 1 8.240000 46.933410 15.000000
307 2 8.240000 47.712000 17.104598
308 2 6.592000 49.205410 17.104598
309 1 6.592000 49.984000 15.000000
310 1 8.240000 51.477410 15.000000
311 2 8.240000 52.256000 17.104598
312 2 6.592000 53.749410 17.104598
313 1 6.592000 54.528000 15.000000
314 1 8.240000 56.021410 15.000000
315 2 8.240000 56.800000 17.104598
316 2 6.592000 58.293410 17.104598
317 1 6.592000 59.072000 15.000000
318 1 8.240000 60.565410 15.000000
319 2 8.240000 61.344000 17.104598
320 2 6.592000 62.837410 17.104598
321 1 6.592000 63.616000 15.000000
322 1 8.240000 65.109410 15.000000
323 2 8.240000 65.888000 17.104598
324 2 6.592000 67.381410 17.104598
325 1 6.592000 68.160000 15.000000
326 1 8.240000 69.653410 15.000000
327 2 8.240000 70.432000 17.104598
328 2 6.592000 71.925410 17.104598
329 1 6.592000 72.704000 15.000000
330 1 8.240000 74.197410 15.000000
331 2 8.240000 74.976000 17.104598
332 2 6.592000 76.469410 17.104598
333 1 6.592000 77.248000 15.000000
334 1 8.240000 78.741410 15.000000
335 2 8.240000 79.520000 17.104598
336 2 6.592000 81.013410 17.104598
337 1 6.592000 81.792000 15.000000
338 1 8.240000 83.285410 15.000000
339 2 8.240000 84.064000 17.104598
340 2 6.592000 85.557410 17.104598
341 1 6.592000 86.336000 15.000000
342 1 8.240000 87.829410 15.000000
343 2 8.240000 88.608000 17.104598
344 2 6.592000 90.101410 17.104598
345 1 6.592000 90.880000 15.000000
346 1 8.240000 92.373410 15.000000
347 2 8.240000 93.152000 17.104598
348 2 6.592000 94.645410 17.104598
349 1 6.592000 95.424000 15.000000
350 1 8.240000 96.917410 15.000000
351 2 8.240000 97.696000 17.104598
352 2 6.592000 99.189410 17.104598
353 1 6.592000 99.968000 15.000000
354 1 8.240000 101.461410 15.000000
355 2 8.240000 102.240000 17.104598
356 2 6.592000 103.733410 17.104598
357 1 6.592000 104.512000 15.000000
358 1 8.240000 106.005410 15.000000
359 2 8.240000 106.784000 17.104598
360 2 6.592000 108.277410 17.104598
361 1 6.592000 109.056000 15.000000
362 1 8.240000 110.549410 15.000000
363 2 8.240000 111.328000 17.104598
364 2 6.592000 112.821410 17.104598
365 1 6.592000 113.600000 15.000000
366 1 8.240000 115.093410 15.000000
367 2 8.240000 115.872000 17.104598
368 2 6.592000 117.365410 17.104598
369 1 6.592000 118.144000 15.000000
370 1 8.240000 119.637410 15.000000
371 2 8.240000 120.416000 17.104598
372 2 6.592000 121.909410 17.104598
373 1 6.592000 122.688000 15.000000
374 1 8.240000 124.181410 15.000000
375 2 8.240000 124.960000 17.104598
376 2 6.592000 126.453410 17.104598
377 1 6.592000 127.232000 15.000000
378 1 8.240000 128.725410 15.000000
379 2 8.240000 129.504000 17.104598
380 2 6.592000 130.997410 17.104598
381 1 6.592000 131.776000 15.000000
382 1 8.240000 133.269410 15.000000
383 2 8.240000 134.048000 17.104598
384 2 6.592000 135.541410 17.104598
385 1 6.592000 136.320000 15.000000
386 1 8.240000 137.813410 15.000000
387 2 8.240000 138.592000 17.104598
388 2 6.592000 140.085410 17.104598
389 1 6.592000 140.864000 15.000000
390 1 8.240000 142.357410 15.000000
391 2 8.240000 143.136000 17.104598
392 2 6.592000 144.629410 17.104598
393 1 6.592000 145.408000 15.000000
394 1 8.240000 146.901410 15.000000
395 2 8.240000 147.680000 17.104598
396 2 6.592000 149.173410 17.104598
397 1 9.888000 0.000000 15.000000
398 1 11.536000 1.493410 15.000000
399 2 11.536000 2.272000 17.104598
400 2 9.888000 3.765410 17.104598
401 1 9.888000 4.544000 15.000000
402 1 11.536000 6.037410 15.000000
403 2 11.536000 6.816000 17.104598
404 2 9.888000 8.309410 17.104598
405 1 9.888000 9.088000 15.000000
406 1 11.536000 10.581410 15.000000
407 2 11.536000 11.360000 17.104598
408 2 9.888000 12.853410 17.104598
409 1 9.888000 13.632000 15.000000
410 1 11.536000 15.125410 15.000000
411 2 11.536000 15.904000 17.104598
412 2 9.888000 17.397410 17.104598
413 1 9.888000 18.176000 15.000000
414 1 11.536000 19.669410 15.000000
415 2 11.536000 20.448000 17.104598
416 2 9.888000 21.941410 17.104598
417 1 9.888000 22.720000 15.000000
418 1 11.536000 24.213410 15.000000
419 2 11.536000 24.992000 17.104598
420 2 9.888000 26.485410 17.104598
421 1 9.888000 27.264000 15.000000
422 1 11.536000 28.757410 15.000000
423 2 11.536000 29.536000 17.104598
424 2 9.888000 31.029410 17.104598
425 1 9.888000 31.808000 15.000000
426 1 11.536000 33.301410 15.000000
427 2 11.536000 34.080000 17.104598
428 2 9.888000 35.573410 17.104598
429 1 9.888000 36.352000 15.000000
430 1 11.536000 37.845410 15.000000
431 2 11.536000 38.624000 17.104598
432 2 9.888000 40.117410 17.104598
433 1 9.888000 40.896000 15.000000
434 1 11.536000 42.389410 15.000000
435 2 11.536000 43.168000 17.104598
436 2 9.888000 44.661410 17.104598
437 1 9.888000 45.440000 15.000000
438 1 11.536000 46.933410 15.000000
439 2 11.536000 47.712000 17.104598
440 2 9.888000 49.205410 17.104598
441 1 9.888000 49.984000 15.000000
442 1 11.536000 51.477410 15.000000
443 2 11.536000 52.256000 17.104598
444 2 9.888000 53.749410 17.104598
445 1 9.888000 54.528000 15.000000
446 1 11.536000 56.021410 15.000000
447 2 11.536000 56.800000 17.104598
448 2 9.888000 58.293410 17.104598
449 1 9.888000 59.072000 15.000000
450 1 11.536000 60.565410 15.000000
451 2 11.536000 61.344000 17.104598
452 2 9.888000 62.837410 17.104598
453 1 9.888000 63.616000 15.000000
454 1 11.536000 65.109410 15.000000
455 2 11.536000 65.888000 17.104598
456 2 9.888000 67.381410 17.104598
457 1 9.888000 68.160000 15.000000
458 1 11.536000 69.653410 15.000000
459 2 11.536000 70.432000 17.104598
460 2 9.888000 71.925410 17.104598
461 1 9.888000 72.704000 15.000000
462 1 11.536000 74.197410 15.000000
463 2 11.536000 74.976000 17.104598
464 2 9.888000 76.469410 17.104598
465 1 9.888000 77.248000 15.000000
466 1 11.536000 78.741410 15.000000
467 2 11.536000 79.520000 17.104598
468 2 9.888000 81.013410 17.104598
469 1 9.888000 81.792000 15.000000
470 1 11.536000 83.285410 15.000000
471 2 11.536000 84.064000 17.104598
472 2 9.888000 85.557410 17.104598
473 1 9.888000 86.336000 15.000000
474 1 11.536000 87.829410 15.000000
475 2 11.536000 88.608000 17.104598
476 2 9.888000 90.101410 17.104598
477 1 9.888000 90.880000 15.000000
478 1 11.536000 92.373410 15.000000
479 2 11.536000 93.152000 17.104598
480 2 9.888000 94.645410 17.104598
481 1 9.888000 95.424000 15.000000
482 1 11.536000 96.917410 15.000000
483 2 11.536000 97.696000 17.104598
484 2 9.888000 99.189410 17.104598
485 1 9.888000 99.968000 15.000000
486 1 11.536000 101.461410 15.000000
487 2 11.536000 102.240000 17.104598
488 2 9.888000 103.733410 17.104598
489 1 9.888000 104.512000 15.000000
490 1 11.536000 106.005410 15.000000
491 2 11.536000 106.784000 17.104598
492 2 9.888000 108.277410 17.104598
493 1 9.888000 109.056000 15.000000
494 1 11.536000 110.549410 15.000000
495 2 11.536000 111.328000 17.104598
496 2 9.888000 112.821410 17.104598
497 1 9.888000 113.600000 15.000000
498 1 11.536000 115.093410 15.000000
499 2 11.536000 115.872000 17.104598
500 2 9.888000 117.365410 17.104598
501 1 9.888000 118.144000 15.000000
502 1 11.536000 119.637410 15.000000
503 2 11.536000 120.416000 17.104598
504 2 9.888000 121.909410 17.104598
505 1 9.888000 122.688000 15.000000
506 1 11.536000 124.181410 15.000000
507 2 11.536000 124.960000 17.104598
508 2 9.888000 126.453410 17.104598
509 1 9.888000 127.232000 15.000000
510 1 11.536000 128.725410 15.000000
511 2 11.536000 129.504000 17.104598
512 2 9.888000 130.997410 17.104598
513 1 9.888000 131.776000 15.000000
514 1 11.536000 133.269410 15.000000
515 2 11.536000 134.048000 17.104598
516 2 9.888000 135.541410 17.104598
517 1 9.888000 136.320000 15.000000
518 1 11.536000 137.813410 15.000000
519 2 11.536000 138.592000 17.104598
520 2 9.888000 140.085410 17.104598
521 1 9.888000 140.864000 15.000000
522 1 11.536000 142.357410 15.000000
523 2 11.536000 143.136000 17.104598
524 2 9.888000 144.629410 17.104598
525 1 9.888000 145.408000 15.000000
526 1 11.536000 146.901410 15.000000
527 2 11.536000 147.680000 17.104598
528 2 9.888000 149.173410 17.104598
529 1 13.184000 0.000000 15.000000
530 1 14.832000 1.493410 15.000000
531 2 14.832000 2.272000 17.104598
532 2 13.184000 3.765410 17.104598
533 1 13.184000 4.544000 15.000000
534 1 14.832000 6.037410 15.000000
535 2 14.832000 6.816000 17.104598
536 2 13.184000 8.309410 17.104598
537 1 13.184000 9.088000 15.000000
538 1 14.832000 10.581410 15.000000
539 2 14.832000 11.360000 17.104598
540 2 13.184000 12.853410 17.104598
541 1 13.184000 13.632000 15.000000
542 1 14.832000 15.125410 15.000000
543 2 14.832000 15.904000 17.104598
544 2 13.184000 17.397410 17.104598
545 1 13.184000 18.176000 15.000000
546 1 14.832000 19.669410 15.000000
547 2 14.832000 20.448000 17.104598
548 2 13.184000 21.941410 17.104598
549 1 13.184000 22.720000 15.000000
550 1 14.832000 24.213410 15.000000
551 2 14.832000 24.992000 17.104598
552 2 13.184000 26.485410 17.104598
553 1 13.184000 27.264000 15.000000
554 1 14.832000 28.757410 15.000000
555 2 14.832000 29.536000 17.104598
556 2 13.184000 31.029410 17.104598
557 1 13.184000 31.808000 15.000000
558 1 14.832000 33.301410 15.000000
559 2 14.832000 34.080000 17.104598
560 2 13.184000 35.573410 17.104598
561 1 13.184000 36.352000 15.000000
562 1 14.832000 37.845410 15.000000
563 2 14.832000 38.624000 17.104598
564 2 13.184000 40.117410 17.104598
565 1 13.184000 40.896000 15.000000
566 1 14.832000 42.389410 15.000000
567 2 14.832000 43.168000 17.104598
568 2 13.184000 44.661410 17.104598
569 1 13.184000 45.440000 15.000000
570 1 14.832000 46.933410 15.000000
571 2 14.832000 47.712000 17.104598
572 2 13.184000 49.205410 17.104598
573 1 13.184000 49.984000 15.000000
574 1 14.832000 51.477410 15.000000
575 2 14.832000 52.256000 17.104598
576 2 13.184000 53.749410 17.104598
577 1 13.184000 54.528000 15.000000
578 1 14.832000 56.021410 15.000000
579 2 14.832000 56.800000 17.104598
580 2 13.184000 58.293410 17.104598
581 1 13.184000 59.072000 15.000000
582 1 14.832000 60.565410 15.000000
583 2 14.832000 61.344000 17.104598
584 2 13.184000 62.837410 17.104598
585 1 13.184000 63.616000 15.000000
586 1 14.832000 65.109410 15.000000
587 2 14.832000 65.888000 17.104598
588 2 13.184000 67.381410 17.104598
589 1 13.184000 68.160000 15.000000
590 1 14.832000 69.653410 15.000000
591 2 14.832000 70.432000 17.104598
592 2 13.184000 71.925410 17.104598
593 1 13.184000 72.704000 15.000000
594 1 14.832000 74.197410 15.000000
595 2 14.832000 74.976000 17.104598
596 2 13.184000 76.469410 17.104598
597 1 13.184000 77.248000 15.000000
598 1 14.832000 78.741410 15.000000
599 2 14.832000 79.520000 17.104598
600 2 13.184000 81.013410 17.104598
601 1 13.184000 81.792000 15.000000
602 1 14.832000 83.285410 15.000000
603 2 14.832000 84.064000 17.104598
604 2 13.184000 85.557410 17.104598
605 1 13.184000 86.336000 15.000000
606 1 14.832000 87.829410 15.000000
607 2 14.832000 88.608000 17.104598
608 2 13.184000 90.101410 17.104598
609 1 13.184000 90.880000 15.000000
610 1 14.832000 92.373410 15.000000
611 2 14.832000 93.152000 17.104598
612 2 13.184000 94.645410 17.104598
613 1 13.184000 95.424000 15.000000
614 1 14.832000 96.917410 15.000000
615 2 14.832000 97.696000 17.104598
616 2 13.184000 99.189410 17.104598
617 1 13.184000 99.968000 15.000000
618 1 14.832000 101.461410 15.000000
619 2 14.832000 102.240000 17.104598
620 2 13.184000 103.733410 17.104598
621 1 13.184000 104.512000 15.000000
622 1 14.832000 106.005410 15.000000
623 2 14.832000 106.784000 17.104598
624 2 13.184000 108.277410 17.104598
625 1 13.184000 109.056000 15.000000
626 1 14.832000 110.549410 15.000000
627 2 14.832000 111.328000 17.104598
628 2 13.184000 112.821410 17.104598
629 1 13.184000 113.600000 15.000000
630 1 14.832000 115.093410 15.000000
631 2 14.832000 115.872000 17.104598
632 2 13.184000 117.365410 17.104598
633 1 13.184000 118.144000 15.000000
634 1 14.832000 119.637410 15.000000
635 2 14.832000 120.416000 17.104598
636 2 13.184000 121.909410 17.104598
637 1 13.184000 122.688000 15.000000
638 1 14.832000 124.181410 15.000000
639 2 14.832000 124.960000 17.104598
640 2 13.184000 126.453410 17.104598
641 1 13.184000 127.232000 15.000000
642 1 14.832000 128.725410 15.000000
643 2 14.832000 129.504000 17.104598
644 2 13.184000 130.997410 17.104598
645 1 13.184000 131.776000 15.000000
646 1 14.832000 133.269410 15.000000
647 2 14.832000 134.048000 17.104598
648 2 13.184000 135.541410 17.104598
649 1 13.184000 136.320000 15.000000
650 1 14.832000 137.813410 15.000000
651 2 14.832000 138.592000 17.104598
652 2 13.184000 140.085410 17.104598
653 1 13.184000 140.864000 15.000000
654 1 14.832000 142.357410 15.000000
655 2 14.832000 143.136000 17.104598
656 2 13.184000 144.629410 17.104598
657 1 13.184000 145.408000 15.000000
658 1 14.832000 146.901410 15.000000
659 2 14.832000 147.680000 17.104598
660 2 13.184000 149.173410 17.104598
661 1 16.480000 0.000000 15.000000
662 1 18.128000 1.493410 15.000000
663 2 18.128000 2.272000 17.104598
664 2 16.480000 3.765410 17.104598
665 1 16.480000 4.544000 15.000000
666 1 18.128000 6.037410 15.000000
667 2 18.128000 6.816000 17.104598
668 2 16.480000 8.309410 17.104598
669 1 16.480000 9.088000 15.000000
670 1 18.128000 10.581410 15.000000
671 2 18.128000 11.360000 17.104598
672 2 16.480000 12.853410 17.104598
673 1 16.480000 13.632000 15.000000
674 1 18.128000 15.125410 15.000000
675 2 18.128000 15.904000 17.104598
676 2 16.480000 17.397410 17.104598
677 1 16.480000 18.176000 15.000000
678 1 18.128000 19.669410 15.000000
679 2 18.128000 20.448000 17.104598
680 2 16.480000 21.941410 17.104598
681 1 16.480000 22.720000 15.000000
682 1 18.128000 24.213410 15.000000
683 2 18.128000 24.992000 17.104598
684 2 16.480000 26.485410 17.104598
685 1 16.480000 27.264000 15.000000
686 1 18.128000 28.757410 15.000000
687 2 18.128000 29.536000 17.104598
688 2 16.480000 31.029410 17.104598
689 1 16.480000 31.808000 15.000000
690 1 18.128000 33.301410 15.000000
691 2 18.128000 34.080000 17.104598
692 2 16.480000 35.573410 17.104598
693 1 16.480000 36.352000 15.000000
694 1 18.128000 37.845410 15.000000
695 2 18.128000 38.624000 17.104598
696 2 16.480000 40.117410 17.104598
697 1 16.480000 40.896000 15.000000
698 1 18.128000 42.389410 15.000000
699 2 18.128000 43.168000 17.104598
700 2 16.480000 44.661410 17.104598
701 1 16.480000 45.440000 15.000000
702 1 18.128000 46.933410 15.000000
703 2 18.128000 47.712000 17.104598
704 2 16.480000 49.205410 17.104598
705 1 16.480000 49.984000 15.000000
706 1 18.128000 51.477410 15.000000
707 2 18.128000 52.256000 17.104598
708 2 16.480000 53.749410 17.104598
709 1 16.480000 54.528000 15.000000
710 1 18.128000 56.021410 15.000000
711 2 18.128000 56.800000 17.104598
712 2 16.480000 58.293410 17.104598
713 1 16.480000 59.072000 15.000000
714 1 18.128000 60.565410 15.000000
715 2 18.128000 61.344000 17.104598
716 2 16.480000 62.837410 17.104598
717 1 16.480000 63.616000 15.000000
718 1 18.128000 65.109410 15.000000
719 2 18.128000 65.888000 17.104598
720 2 16.480000 67.381410 17.104598
721 1 16.480000 68.160000 15.000000
722 1 18.128000 69.653410 15.000000
723 2 18.128000 70.432000 17.104598
724 2 16.480000 71.925410 17.104598
725 1 16.480000 72.704000 15.000000
726 1 18.128000 74.197410 15.000000
727 2 18.128000 74.976000 17.104598
728 2 16.480000 76.469410 17.104598
729 1 16.480000 77.248000 15.000000
730 1 18.128000 78.741410 15.000000
731 2 18.128000 79.520000 17.104598
732 2 16.480000 81.013410 17.104598
733 1 16.480000 81.792000 15.000000
734 1 18.128000 83.285410 15.000000
735 2 18.128000 84.064000 17.104598
736 2 16.480000 85.557410 17.104598
737 1 16.480000 86.336000 15.000000
738 1 18.128000 87.829410 15.000000
739 2 18.128000 88.608000 17.104598
740 2 16.480000 90.101410 17.104598
741 1 16.480000 90.880000 15.000000
742 1 18.128000 92.373410 15.000000
743 2 18.128000 93.152000 17.104598
744 2 16.480000 94.645410 17.104598
745 1 16.480000 95.424000 15.000000
746 1 18.128000 96.917410 15.000000
747 2 18.128000 97.696000 17.104598
748 2 16.480000 99.189410 17.104598
749 1 16.480000 99.968000 15.000000
750 1 18.128000 101.461410 15.000000
751 2 18.128000 102.240000 17.104598
752 2 16.480000 103.733410 17.104598
753 1 16.480000 104.512000 15.000000
754 1 18.128000 106.005410 15.000000
755 2 18.128000 106.784000 17.104598
756 2 16.480000 108.277410 17.104598
757 1 16.480000 109.056000 15.000000
758 1 18.128000 110.549410 15.000000
759 2 18.128000 111.328000 17.104598
760 2 16.480000 112.821410 17.104598
761 1 16.480000 113.600000 15.000000
762 1 18.128000 115.093410 15.000000
763 2 18.128000 115.872000 17.104598
764 2 16.480000 117.365410 17.104598
765 1 16.480000 118.144000 15.000000
766 1 18.128000 119.637410 15.000000
767 2 18.128000 120.416000 17.104598
768 2 16.480000 121.909410 17.104598
769 1 16.480000 122.688000 15.000000
770 1 18.128000 124.181410 15.000000
771 2 18.128000 124.960000 17.104598
772 2 16.480000 126.453410 17.104598
773 1 16.480000 127.232000 15.000000
774 1 18.128000 128.725410 15.000000
775 2 18.128000 129.504000 17.104598
776 2 16.480000 130.997410 17.104598
777 1 16.480000 131.776000 15.000000
778 1 18.128000 133.269410 15.000000
779 2 18.128000 134.048000 17.104598
780 2 16.480000 135.541410 17.104598
781 1 16.480000 136.320000 15.000000
782 1 18.128000 137.813410 15.000000
783 2 18.128000 138.592000 17.104598
784 2 16.480000 140.085410 17.104598
785 1 16.480000 140.864000 15.000000
786 1 18.128000 142.357410 15.000000
787 2 18.128000 143.136000 17.104598
788 2 16.480000 144.629410 17.104598
789 1 16.480000 145.408000 15.000000
790 1 18.128000 146.901410 15.000000
791 2 18.128000 147.680000 17.104598
792 2 16.480000 149.173410 17.104598
793 1 19.776000 0.000000 15.000000
794 1 21.424000 1.493410 15.000000
795 2 21.424000 2.272000 17.104598
796 2 19.776000 3.765410 17.104598
797 1 19.776000 4.544000 15.000000
798 1 21.424000 6.037410 15.000000
799 2 21.424000 6.816000 17.104598
800 2 19.776000 8.309410 17.104598
801 1 19.776000 9.088000 15.000000
802 1 21.424000 10.581410 15.000000
803 2 21.424000 11.360000 17.104598
804 2 19.776000 12.853410 17.104598
805 1 19.776000 13.632000 15.000000
806 1 21.424000 15.125410 15.000000
807 2 21.424000 15.904000 17.104598
808 2 19.776000 17.397410 17.104598
809 1 19.776000 18.176000 15.000000
810 1 21.424000 19.669410 15.000000
811 2 21.424000 20.448000 17.104598
812 2 19.776000 21.941410 17.104598
813 1 19.776000 22.720000 15.000000
814 1 21.424000 24.213410 15.000000
815 2 21.424000 24.992000 17.104598
816 2 19.776000 26.485410 17.104598
817 1 19.776000 27.264000 15.000000
818 1 21.424000 28.757410 15.000000
819 2 21.424000 29.536000 17.104598
820 2 19.776000 31.029410 17.104598
821 1 19.776000 31.808000 15.000000
822 1 21.424000 33.301410 15.000000
823 2 21.424000 34.080000 17.104598
824 2 19.776000 35.573410 17.104598
825 1 19.776000 36.352000 15.000000
826 1 21.424000 37.845410 15.000000
827 2 21.424000 38.624000 17.104598
828 2 19.776000 40.117410 17.104598
829 1 19.776000 40.896000 15.000000
830 1 21.424000 42.389410 15.000000
831 2 21.424000 43.168000 17.104598
832 2 19.776000 44.661410 17.104598
833 1 19.776000 45.440000 15.000000
834 1 21.424000 46.933410 15.000000
835 2 21.424000 47.712000 17.104598
836 2 19.776000 49.205410 17.104598
837 1 19.776000 49.984000 15.000000
838 1 21.424000 51.477410 15.000000
839 2 21.424000 52.256000 17.104598
840 2 19.776000 53.749410 17.104598
841 1 19.776000 54.528000 15.000000
842 1 21.424000 56.021410 15.000000
843 2 21.424000 56.800000 17.104598
844 2 19.776000 58.293410 17.104598
845 1 19.776000 59.072000 15.000000
846 1 21.424000 60.565410 15.000000
847 2 21.424000 61.344000 17.104598
848 2 19.776000 62.837410 17.104598
849 1 19.776000 63.616000 15.000000
850 1 21.424000 65.109410 15.000000
851 2 21.424000 65.888000 17.104598
852 2 19.776000 67.381410 17.104598
853 1 19.776000 68.160000 15.000000
854 1 21.424000 69.653410 15.000000
855 2 21.424000 70.432000 17.104598
856 2 19.776000 71.925410 17.104598
857 1 19.776000 72.704000 15.000000
858 1 21.424000 74.197410 15.000000
859 2 21.424000 74.976000 17.104598
860 2 19.776000 76.469410 17.104598
861 1 19.776000 77.248000 15.000000
862 1 21.424000 78.741410 15.000000
863 2 21.424000 79.520000 17.104598
864 2 19.776000 81.013410 17.104598
865 1 19.776000 81.792000 15.000000
866 1 21.424000 83.285410 15.000000
867 2 21.424000 84.064000 17.104598
868 2 19.776000 85.557410 17.104598
869 1 19.776000 86.336000 15.000000
870 1 21.424000 87.829410 15.000000
871 2 21.424000 88.608000 17.104598
872 2 19.776000 90.101410 17.104598
873 1 19.776000 90.880000 15.000000
874 1 21.424000 92.373410 15.000000
875 2 21.424000 93.152000 17.104598
876 2 19.776000 94.645410 17.104598
877 1 19.776000 95.424000 15.000000
878 1 21.424000 96.917410 15.000000
879 2 21.424000 97.696000 17.104598
880 2 19.776000 99.189410 17.104598
881 1 19.776000 99.968000 15.000000
882 1 21.424000 101.461410 15.000000
883 2 21.424000 102.240000 17.104598
884 2 19.776000 103.733410 17.104598
885 1 19.776000 104.512000 15.000000
886 1 21.424000 106.005410 15.000000
887 2 21.424000 106.784000 17.104598
888 2 19.776000 108.277410 17.104598
889 1 19.776000 109.056000 15.000000
890 1 21.424000 110.549410 15.000000
891 2 21.424000 111.328000 17.104598
892 2 19.776000 112.821410 17.104598
893 1 19.776000 113.600000 15.000000
894 1 21.424000 115.093410 15.000000
895 2 21.424000 115.872000 17.104598
896 2 19.776000 117.365410 17.104598
897 1 19.776000 118.144000 15.000000
898 1 21.424000 119.637410 15.000000
899 2 21.424000 120.416000 17.104598
900 2 19.776000 121.909410 17.104598
901 1 19.776000 122.688000 15.000000
902 1 21.424000 124.181410 15.000000
903 2 21.424000 124.960000 17.104598
904 2 19.776000 126.453410 17.104598
905 1 19.776000 127.232000 15.000000
906 1 21.424000 128.725410 15.000000
907 2 21.424000 129.504000 17.104598
908 2 19.776000 130.997410 17.104598
909 1 19.776000 131.776000 15.000000
910 1 21.424000 133.269410 15.000000
911 2 21.424000 134.048000 17.104598
912 2 19.776000 135.541410 17.104598
913 1 19.776000 136.320000 15.000000
914 1 21.424000 137.813410 15.000000
915 2 21.424000 138.592000 17.104598
916 2 19.776000 140.085410 17.104598
917 1 19.776000 140.864000 15.000000
918 1 21.424000 142.357410 15.000000
919 2 21.424000 143.136000 17.104598
920 2 19.776000 144.629410 17.104598
921 1 19.776000 145.408000 15.000000
922 1 21.424000 146.901410 15.000000
923 2 21.424000 147.680000 17.104598
924 2 19.776000 149.173410 17.104598
925 1 23.072000 0.000000 15.000000
926 1 24.720000 1.493410 15.000000
927 2 24.720000 2.272000 17.104598
928 2 23.072000 3.765410 17.104598
929 1 23.072000 4.544000 15.000000
930 1 24.720000 6.037410 15.000000
931 2 24.720000 6.816000 17.104598
932 2 23.072000 8.309410 17.104598
933 1 23.072000 9.088000 15.000000
934 1 24.720000 10.581410 15.000000
935 2 24.720000 11.360000 17.104598
936 2 23.072000 12.853410 17.104598
937 1 23.072000 13.632000 15.000000
938 1 24.720000 15.125410 15.000000
939 2 24.720000 15.904000 17.104598
940 2 23.072000 17.397410 17.104598
941 1 23.072000 18.176000 15.000000
942 1 24.720000 19.669410 15.000000
943 2 24.720000 20.448000 17.104598
944 2 23.072000 21.941410 17.104598
945 1 23.072000 22.720000 15.000000
946 1 24.720000 24.213410 15.000000
947 2 24.720000 24.992000 17.104598
948 2 23.072000 26.485410 17.104598
949 1 23.072000 27.264000 15.000000
950 1 24.720000 28.757410 15.000000
951 2 24.720000 29.536000 17.104598
952 2 23.072000 31.029410 17.104598
953 1 23.072000 31.808000 15.000000
954 1 24.720000 33.301410 15.000000
955 2 24.720000 34.080000 17.104598
956 2 23.072000 35.573410 17.104598
957 1 23.072000 36.352000 15.000000
958 1 24.720000 37.845410 15.000000
959 2 24.720000 38.624000 17.104598
960 2 23.072000 40.117410 17.104598
961 1 23.072000 40.896000 15.000000
962 1 24.720000 42.389410 15.000000
963 2 24.720000 43.168000 17.104598
964 2 23.072000 44.661410 17.104598
965 1 23.072000 45.440000 15.000000
966 1 24.720000 46.933410 15.000000
967 2 24.720000 47.712000 17.104598
968 2 23.072000 49.205410 17.104598
969 1 23.072000 49.984000 15.000000
970 1 24.720000 51.477410 15.000000
971 2 24.720000 52.256000 17.104598
972 2 23.072000 53.749410 17.104598
973 1 23.072000 54.528000 15.000000
974 1 24.720000 56.021410 15.000000
975 2 24.720000 56.800000 17.104598
976 2 23.072000 58.293410 17.104598
977 1 23.072000 59.072000 15.000000
978 1 24.720000 60.565410 15.000000
979 2 24.720000 61.344000 17.104598
980 2 23.072000 62.837410 17.104598
981 1 23.072000 63.616000 15.000000
982 1 24.720000 65.109410 15.000000
983 2 24.720000 65.888000 17.104598
984 2 23.072000 67.381410 17.104598
985 1 23.072000 68.160000 15.000000
986 1 24.720000 69.653410 15.000000
987 2 24.720000 70.432000 17.104598
988 2 23.072000 71.925410 17.104598
989 1 23.072000 72.704000 15.000000
990 1 24.720000 74.197410 15.000000
991 2 24.720000 74.976000 17.104598
992 2 23.072000 76.469410 17.104598
993 1 23.072000 77.248000 15.000000
994 1 24.720000 78.741410 15.000000
995 2 24.720000 79.520000 17.104598
996 2 23.072000 81.013410 17.104598
997 1 23.072000 81.792000 15.000000
998 1 24.720000 83.285410 15.000000
999 2 24.720000 84.064000 17.104598
1000 2 23.072000 85.557410 17.104598
1001 1 23.072000 86.336000 15.000000
1002 1 24.720000 87.829410 15.000000
1003 2 24.720000 88.608000 17.104598
1004 2 23.072000 90.101410 17.104598
1005 1 23.072000 90.880000 15.000000
1006 1 24.720000 92.373410 15.000000
1007 2 24.720000 93.152000 17.104598
1008 2 23.072000 94.645410 17.104598
1009 1 23.072000 95.424000 15.000000
1010 1 24.720000 96.917410 15.000000
1011 2 24.720000 97.696000 17.104598
1012 2 23.072000 99.189410 17.104598
1013 1 23.072000 99.968000 15.000000
1014 1 24.720000 101.461410 15.000000
1015 2 24.720000 102.240000 17.104598
1016 2 23.072000 103.733410 17.104598
1017 1 23.072000 104.512000 15.000000
1018 1 24.720000 106.005410 15.000000
1019 2 24.720000 106.784000 17.104598
1020 2 23.072000 108.277410 17.104598
1021 1 23.072000 109.056000 15.000000
1022 1 24.720000 110.549410 15.000000
1023 2 24.720000 111.328000 17.104598
1024 2 23.072000 112.821410 17.104598
1025 1 23.072000 113.600000 15.000000
1026 1 24.720000 115.093410 15.000000
1027 2 24.720000 115.872000 17.104598
1028 2 23.072000 117.365410 17.104598
1029 1 23.072000 118.144000 15.000000
1030 1 24.720000 119.637410 15.000000
1031 2 24.720000 120.416000 17.104598
1032 2 23.072000 121.909410 17.104598
1033 1 23.072000 122.688000 15.000000
1034 1 24.720000 124.181410 15.000000
1035 2 24.720000 124.960000 17.104598
1036 2 23.072000 126.453410 17.104598
1037 1 23.072000 127.232000 15.000000
1038 1 24.720000 128.725410 15.000000
1039 2 24.720000 129.504000 17.104598
1040 2 23.072000 130.997410 17.104598
1041 1 23.072000 131.776000 15.000000
1042 1 24.720000 133.269410 15.000000
1043 2 24.720000 134.048000 17.104598
1044 2 23.072000 135.541410 17.104598
1045 1 23.072000 136.320000 15.000000
1046 1 24.720000 137.813410 15.000000
1047 2 24.720000 138.592000 17.104598
1048 2 23.072000 140.085410 17.104598
1049 1 23.072000 140.864000 15.000000
1050 1 24.720000 142.357410 15.000000
1051 2 24.720000 143.136000 17.104598
1052 2 23.072000 144.629410 17.104598
1053 1 23.072000 145.408000 15.000000
1054 1 24.720000 146.901410 15.000000
1055 2 24.720000 147.680000 17.104598
1056 2 23.072000 149.173410 17.104598
1057 1 26.368000 0.000000 15.000000
1058 1 28.016000 1.493410 15.000000
1059 2 28.016000 2.272000 17.104598
1060 2 26.368000 3.765410 17.104598
1061 1 26.368000 4.544000 15.000000
1062 1 28.016000 6.037410 15.000000
1063 2 28.016000 6.816000 17.104598
1064 2 26.368000 8.309410 17.104598
1065 1 26.368000 9.088000 15.000000
1066 1 28.016000 10.581410 15.000000
1067 2 28.016000 11.360000 17.104598
1068 2 26.368000 12.853410 17.104598
1069 1 26.368000 13.632000 15.000000
1070 1 28.016000 15.125410 15.000000
1071 2 28.016000 15.904000 17.104598
1072 2 26.368000 17.397410 17.104598
1073 1 26.368000 18.176000 15.000000
1074 1 28.016000 19.669410 15.000000
1075 2 28.016000 20.448000 17.104598
1076 2 26.368000 21.941410 17.104598
1077 1 26.368000 22.720000 15.000000
1078 1 28.016000 24.213410 15.000000
1079 2 28.016000 24.992000 17.104598
1080 2 26.368000 26.485410 17.104598
1081 1 26.368000 27.264000 15.000000
1082 1 28.016000 28.757410 15.000000
1083 2 28.016000 29.536000 17.104598
1084 2 26.368000 31.029410 17.104598
1085 1 26.368000 31.808000 15.000000
1086 1 28.016000 33.301410 15.000000
1087 2 28.016000 34.080000 17.104598
1088 2 26.368000 35.573410 17.104598
1089 1 26.368000 36.352000 15.000000
1090 1 28.016000 37.845410 15.000000
1091 2 28.016000 38.624000 17.104598
1092 2 26.368000 40.117410 17.104598
1093 1 26.368000 40.896000 15.000000
1094 1 28.016000 42.389410 15.000000
1095 2 28.016000 43.168000 17.104598
1096 2 26.368000 44.661410 17.104598
1097 1 26.368000 45.440000 15.000000
1098 1 28.016000 46.933410 15.000000
1099 2 28.016000 47.712000 17.104598
1100 2 26.368000 49.205410 17.104598
1101 1 26.368000 49.984000 15.000000
1102 1 28.016000 51.477410 15.000000
1103 2 28.016000 52.256000 17.104598
1104 2 26.368000 53.749410 17.104598
1105 1 26.368000 54.528000 15.000000
1106 1 28.016000 56.021410 15.000000
1107 2 28.016000 56.800000 17.104598
1108 2 26.368000 58.293410 17.104598
1109 1 26.368000 59.072000 15.000000
1110 1 28.016000 60.565410 15.000000
1111 2 28.016000 61.344000 17.104598
1112 2 26.368000 62.837410 17.104598
1113 1 26.368000 63.616000 15.000000
1114 1 28.016000 65.109410 15.000000
1115 2 28.016000 65.888000 17.104598
1116 2 26.368000 67.381410 17.104598
1117 1 26.368000 68.160000 15.000000
1118 1 28.016000 69.653410 15.000000
1119 2 28.016000 70.432000 17.104598
1120 2 26.368000 71.925410 17.104598
1121 1 26.368000 72.704000 15.000000
1122 1 28.016000 74.197410 15.000000
1123 2 28.016000 74.976000 17.104598
1124 2 26.368000 76.469410 17.104598
1125 1 26.368000 77.248000 15.000000
1126 1 28.016000 78.741410 15.000000
1127 2 28.016000 79.520000 17.104598
1128 2 26.368000 81.013410 17.104598
1129 1 26.368000 81.792000 15.000000
1130 1 28.016000 83.285410 15.000000
1131 2 28.016000 84.064000 17.104598
1132 2 26.368000 85.557410 17.104598
1133 1 26.368000 86.336000 15.000000
1134 1 28.016000 87.829410 15.000000
1135 2 28.016000 88.608000 17.104598
1136 2 26.368000 90.101410 17.104598
1137 1 26.368000 90.880000 15.000000
1138 1 28.016000 92.373410 15.000000
1139 2 28.016000 93.152000 17.104598
1140 2 26.368000 94.645410 17.104598
1141 1 26.368000 95.424000 15.000000
1142 1 28.016000 96.917410 15.000000
1143 2 28.016000 97.696000 17.104598
1144 2 26.368000 99.189410 17.104598
1145 1 26.368000 99.968000 15.000000
1146 1 28.016000 101.461410 15.000000
1147 2 28.016000 102.240000 17.104598
1148 2 26.368000 103.733410 17.104598
1149 1 26.368000 104.512000 15.000000
1150 1 28.016000 106.005410 15.000000
1151 2 28.016000 106.784000 17.104598
1152 2 26.368000 108.277410 17.104598
1153 1 26.368000 109.056000 15.000000
1154 1 28.016000 110.549410 15.000000
1155 2 28.016000 111.328000 17.104598
1156 2 26.368000 112.821410 17.104598
1157 1 26.368000 113.600000 15.000000
1158 1 28.016000 115.093410 15.000000
1159 2 28.016000 115.872000 17.104598
1160 2 26.368000 117.365410 17.104598
1161 1 26.368000 118.144000 15.000000
1162 1 28.016000 119.637410 15.000000
1163 2 28.016000 120.416000 17.104598
1164 2 26.368000 121.909410 17.104598
1165 1 26.368000 122.688000 15.000000
1166 1 28.016000 124.181410 15.000000
1167 2 28.016000 124.960000 17.104598
1168 2 26.368000 126.453410 17.104598
1169 1 26.368000 127.232000 15.000000
1170 1 28.016000 128.725410 15.000000
1171 2 28.016000 129.504000 17.104598
1172 2 26.368000 130.997410 17.104598
1173 1 26.368000 131.776000 15.000000
1174 1 28.016000 133.269410 15.000000
1175 2 28.016000 134.048000 17.104598
1176 2 26.368000 135.541410 17.104598
1177 1 26.368000 136.320000 15.000000
1178 1 28.016000 137.813410 15.000000
1179 2 28.016000 138.592000 17.104598
1180 2 26.368000 140.085410 17.104598
1181 1 26.368000 140.864000 15.000000
1182 1 28.016000 142.357410 15.000000
1183 2 28.016000 143.136000 17.104598
1184 2 26.368000 144.629410 17.104598
1185 1 26.368000 145.408000 15.000000
1186 1 28.016000 146.901410 15.000000
1187 2 28.016000 147.680000 17.104598
1188 2 26.368000 149.173410 17.104598
1189 1 29.664000 0.000000 15.000000
1190 1 31.312000 1.493410 15.000000
1191 2 31.312000 2.272000 17.104598
1192 2 29.664000 3.765410 17.104598
1193 1 29.664000 4.544000 15.000000
1194 1 31.312000 6.037410 15.000000
1195 2 31.312000 6.816000 17.104598
1196 2 29.664000 8.309410 17.104598
1197 1 29.664000 9.088000 15.000000
1198 1 31.312000 10.581410 15.000000
1199 2 31.312000 11.360000 17.104598
1200 2 29.664000 12.853410 17.104598
1201 1 29.664000 13.632000 15.000000
1202 1 31.312000 15.125410 15.000000
1203 2 31.312000 15.904000 17.104598
1204 2 29.664000 17.397410 17.104598
1205 1 29.664000 18.176000 15.000000
1206 1 31.312000 19.669410 15.000000
1207 2 31.312000 20.448000 17.104598
1208 2 29.664000 21.941410 17.104598
1209 1 29.664000 22.720000 15.000000
1210 1 31.312000 24.213410 15.000000
1211 2 31.312000 24.992000 17.104598
1212 2 29.664000 26.485410 17.104598
1213 1 29.664000 27.264000 15.000000
1214 1 31.312000 28.757410 15.000000
1215 2 31.312000 29.536000 17.104598
1216 2 29.664000 31.029410 17.104598
1217 1 29.664000 31.808000 15.000000
1218 1 31.312000 33.301410 15.000000
1219 2 31.312000 34.080000 17.104598
1220 2 29.664000 35.573410 17.104598
1221 1 29.664000 36.352000 15.000000
1222 1 31.312000 37.845410 15.000000
1223 2 31.312000 38.624000 17.104598
1224 2 29.664000 40.117410 17.104598
1225 1 29.664000 40.896000 15.000000
1226 1 31.312000 42.389410 15.000000
1227 2 31.312000 43.168000 17.104598
1228 2 29.664000 44.661410 17.104598
1229 1 29.664000 45.440000 15.000000
1230 1 31.312000 46.933410 15.000000
1231 2 31.312000 47.712000 17.104598
1232 2 29.664000 49.205410 17.104598
1233 1 29.664000 49.984000 15.000000
1234 1 31.312000 51.477410 15.000000
1235 2 31.312000 52.256000 17.104598
1236 2 29.664000 53.749410 17.104598
1237 1 29.664000 54.528000 15.000000
1238 1 31.312000 56.021410 15.000000
1239 2 31.312000 56.800000 17.104598
1240 2 29.664000 58.293410 17.104598
1241 1 29.664000 59.072000 15.000000
1242 1 31.312000 60.565410 15.000000
1243 2 31.312000 61.344000 17.104598
1244 2 29.664000 62.837410 17.104598
1245 1 29.664000 63.616000 15.000000
1246 1 31.312000 65.109410 15.000000
1247 2 31.312000 65.888000 17.104598
1248 2 29.664000 67.381410 17.104598
1249 1 29.664000 68.160000 15.000000
1250 1 31.312000 69.653410 15.000000
1251 2 31.312000 70.432000 17.104598
1252 2 29.664000 71.925410 17.104598
1253 1 29.664000 72.704000 15.000000
1254 1 31.312000 74.197410 15.000000
1255 2 31.312000 74.976000 17.104598
1256 2 29.664000 76.469410 17.104598
1257 1 29.664000 77.248000 15.000000
1258 1 31.312000 78.741410 15.000000
1259 2 31.312000 79.520000 17.104598
1260 2 29.664000 81.013410 17.104598
1261 1 29.664000 81.792000 15.000000
1262 1 31.312000 83.285410 15.000000
1263 2 31.312000 84.064000 17.104598
1264 2 29.664000 85.557410 17.104598
1265 1 29.664000 86.336000 15.000000
1266 1 31.312000 87.829410 15.000000
1267 2 31.312000 88.608000 17.104598
1268 2 29.664000 90.101410 17.104598
1269 1 29.664000 90.880000 15.000000
1270 1 31.312000 92.373410 15.000000
1271 2 31.312000 93.152000 17.104598
1272 2 29.664000 94.645410 17.104598
1273 1 29.664000 95.424000 15.000000
1274 1 31.312000 96.917410 15.000000
1275 2 31.312000 97.696000 17.104598
1276 2 29.664000 99.189410 17.104598
1277 1 29.664000 99.968000 15.000000
1278 1 31.312000 101.461410 15.000000
1279 2 31.312000 102.240000 17.104598
1280 2 29.664000 103.733410 17.104598
1281 1 29.664000 104.512000 15.000000
1282 1 31.312000 106.005410 15.000000
1283 2 31.312000 106.784000 17.104598
1284 2 29.664000 108.277410 17.104598
1285 1 29.664000 109.056000 15.000000
1286 1 31.312000 110.549410 15.000000
1287 2 31.312000 111.328000 17.104598
1288 2 29.664000 112.821410 17.104598
1289 1 29.664000 113.600000 15.000000
1290 1 31.312000 115.093410 15.000000
1291 2 31.312000 115.872000 17.104598
1292 2 29.664000 117.365410 17.104598
1293 1 29.664000 118.144000 15.000000
1294 1 31.312000 119.637410 15.000000
1295 2 31.312000 120.416000 17.104598
1296 2 29.664000 121.909410 17.104598
1297 1 29.664000 122.688000 15.000000
1298 1 31.312000 124.181410 15.000000
1299 2 31.312000 124.960000 17.104598
1300 2 29.664000 126.453410 17.104598
1301 1 29.664000 127.232000 15.000000
1302 1 31.312000 128.725410 15.000000
1303 2 31.312000 129.504000 17.104598
1304 2 29.664000 130.997410 17.104598
1305 1 29.664000 131.776000 15.000000
1306 1 31.312000 133.269410 15.000000
1307 2 31.312000 134.048000 17.104598
1308 2 29.664000 135.541410 17.104598
1309 1 29.664000 136.320000 15.000000
1310 1 31.312000 137.813410 15.000000
1311 2 31.312000 138.592000 17.104598
1312 2 29.664000 140.085410 17.104598
1313 1 29.664000 140.864000 15.000000
1314 1 31.312000 142.357410 15.000000
1315 2 31.312000 143.136000 17.104598
1316 2 29.664000 144.629410 17.104598
1317 1 29.664000 145.408000 15.000000
1318 1 31.312000 146.901410 15.000000
1319 2 31.312000 147.680000 17.104598
1320 2 29.664000 149.173410 17.104598
1321 1 32.960000 0.000000 15.000000
1322 1 34.608000 1.493410 15.000000
1323 2 34.608000 2.272000 17.104598
1324 2 32.960000 3.765410 17.104598
1325 1 32.960000 4.544000 15.000000
1326 1 34.608000 6.037410 15.000000
1327 2 34.608000 6.816000 17.104598
1328 2 32.960000 8.309410 17.104598
1329 1 32.960000 9.088000 15.000000
1330 1 34.608000 10.581410 15.000000
1331 2 34.608000 11.360000 17.104598
1332 2 32.960000 12.853410 17.104598
1333 1 32.960000 13.632000 15.000000
1334 1 34.608000 15.125410 15.000000
1335 2 34.608000 15.904000 17.104598
1336 2 32.960000 17.397410 17.104598
1337 1 32.960000 18.176000 15.000000
1338 1 34.608000 19.669410 15.000000
1339 2 34.608000 20.448000 17.104598
1340 2 32.960000 21.941410 17.104598
1341 1 32.960000 22.720000 15.000000
1342 1 34.608000 24.213410 15.000000
1343 2 34.608000 24.992000 17.104598
1344 2 32.960000 26.485410 17.104598
1345 1 32.960000 27.264000 15.000000
1346 1 34.608000 28.757410 15.000000
1347 2 34.608000 29.536000 17.104598
1348 2 32.960000 31.029410 17.104598
1349 1 32.960000 31.808000 15.000000
1350 1 34.608000 33.301410 15.000000
1351 2 34.608000 34.080000 17.104598
1352 2 32.960000 35.573410 17.104598
1353 1 32.960000 36.352000 15.000000
1354 1 34.608000 37.845410 15.000000
1355 2 34.608000 38.624000 17.104598
1356 2 32.960000 40.117410 17.104598
1357 1 32.960000 40.896000 15.000000
1358 1 34.608000 42.389410 15.000000
1359 2 34.608000 43.168000 17.104598
1360 2 32.960000 44.661410 17.104598
1361 1 32.960000 45.440000 15.000000
1362 1 34.608000 46.933410 15.000000
1363 2 34.608000 47.712000 17.104598
1364 2 32.960000 49.205410 17.104598
1365 1 32.960000 49.984000 15.000000
1366 1 34.608000 51.477410 15.000000
1367 2 34.608000 52.256000 17.104598
1368 2 32.960000 53.749410 17.104598
1369 1 32.960000 54.528000 15.000000
1370 1 34.608000 56.021410 15.000000
1371 2 34.608000 56.800000 17.104598
1372 2 32.960000 58.293410 17.104598
1373 1 32.960000 59.072000 15.000000
1374 1 34.608000 60.565410 15.000000
1375 2 34.608000 61.344000 17.104598
1376 2 32.960000 62.837410 17.104598
1377 1 32.960000 63.616000 15.000000
1378 1 34.608000 65.109410 15.000000
1379 2 34.608000 65.888000 17.104598
1380 2 32.960000 67.381410 17.104598
1381 1 32.960000 68.160000 15.000000
1382 1 34.608000 69.653410 15.000000
1383 2 34.608000 70.432000 17.104598
1384 2 32.960000 71.925410 17.104598
1385 1 32.960000 72.704000 15.000000
1386 1 34.608000 74.197410 15.000000
1387 2 34.608000 74.976000 17.104598
1388 2 32.960000 76.469410 17.104598
1389 1 32.960000 77.248000 15.000000
1390 1 34.608000 78.741410 15.000000
1391 2 34.608000 79.520000 17.104598
1392 2 32.960000 81.013410 17.104598
1393 1 32.960000 81.792000 15.000000
1394 1 34.608000 83.285410 15.000000
1395 2 34.608000 84.064000 17.104598
1396 2 32.960000 85.557410 17.104598
1397 1 32.960000 86.336000 15.000000
1398 1 34.608000 87.829410 15.000000
1399 2 34.608000 88.608000 17.104598
1400 2 32.960000 90.101410 17.104598
1401 1 32.960000 90.880000 15.000000
1402 1 34.608000 92.373410 15.000000
1403 2 34.608000 93.152000 17.104598
1404 2 32.960000 94.645410 17.104598
1405 1 32.960000 95.424000 15.000000
1406 1 34.608000 96.917410 15.000000
1407 2 34.608000 97.696000 17.104598
1408 2 32.960000 99.189410 17.104598
1409 1 32.960000 99.968000 15.000000
1410 1 34.608000 101.461410 15.000000
1411 2 34.608000 102.240000 17.104598
1412 2 32.960000 103.733410 17.104598
1413 1 32.960000 104.512000 15.000000
1414 1 34.608000 106.005410 15.000000
1415 2 34.608000 106.784000 17.104598
1416 2 32.960000 108.277410 17.104598
1417 1 32.960000 109.056000 15.000000
1418 1 34.608000 110.549410 15.000000
1419 2 34.608000 111.328000 17.104598
1420 2 32.960000 112.821410 17.104598
1421 1 32.960000 113.600000 15.000000
1422 1 34.608000 115.093410 15.000000
1423 2 34.608000 115.872000 17.104598
1424 2 32.960000 117.365410 17.104598
1425 1 32.960000 118.144000 15.000000
1426 1 34.608000 119.637410 15.000000
1427 2 34.608000 120.416000 17.104598
1428 2 32.960000 121.909410 17.104598
1429 1 32.960000 122.688000 15.000000
1430 1 34.608000 124.181410 15.000000
1431 2 34.608000 124.960000 17.104598
1432 2 32.960000 126.453410 17.104598
1433 1 32.960000 127.232000 15.000000
1434 1 34.608000 128.725410 15.000000
1435 2 34.608000 129.504000 17.104598
1436 2 32.960000 130.997410 17.104598
1437 1 32.960000 131.776000 15.000000
1438 1 34.608000 133.269410 15.000000
1439 2 34.608000 134.048000 17.104598
1440 2 32.960000 135.541410 17.104598
1441 1 32.960000 136.320000 15.000000
1442 1 34.608000 137.813410 15.000000
1443 2 34.608000 138.592000 17.104598
1444 2 32.960000 140.085410 17.104598
1445 1 32.960000 140.864000 15.000000
1446 1 34.608000 142.357410 15.000000
1447 2 34.608000 143.136000 17.104598
1448 2 32.960000 144.629410 17.104598
1449 1 32.960000 145.408000 15.000000
1450 1 34.608000 146.901410 15.000000
1451 2 34.608000 147.680000 17.104598
1452 2 32.960000 149.173410 17.104598
1453 1 36.256000 0.000000 15.000000
1454 1 37.904000 1.493410 15.000000
1455 2 37.904000 2.272000 17.104598
1456 2 36.256000 3.765410 17.104598
1457 1 36.256000 4.544000 15.000000
1458 1 37.904000 6.037410 15.000000
1459 2 37.904000 6.816000 17.104598
1460 2 36.256000 8.309410 17.104598
1461 1 36.256000 9.088000 15.000000
1462 1 37.904000 10.581410 15.000000
1463 2 37.904000 11.360000 17.104598
1464 2 36.256000 12.853410 17.104598
1465 1 36.256000 13.632000 15.000000
1466 1 37.904000 15.125410 15.000000
1467 2 37.904000 15.904000 17.104598
1468 2 36.256000 17.397410 17.104598
1469 1 36.256000 18.176000 15.000000
1470 1 37.904000 19.669410 15.000000
1471 2 37.904000 20.448000 17.104598
1472 2 36.256000 21.941410 17.104598
1473 1 36.256000 22.720000 15.000000
1474 1 37.904000 24.213410 15.000000
1475 2 37.904000 24.992000 17.104598
1476 2 36.256000 26.485410 17.104598
1477 1 36.256000 27.264000 15.000000
1478 1 37.904000 28.757410 15.000000
1479 2 37.904000 29.536000 17.104598
1480 2 36.256000 31.029410 17.104598
1481 1 36.256000 31.808000 15.000000
1482 1 37.904000 33.301410 15.000000
1483 2 37.904000 34.080000 17.104598
1484 2 36.256000 35.573410 17.104598
1485 1 36.256000 36.352000 15.000000
1486 1 37.904000 37.845410 15.000000
1487 2 37.904000 38.624000 17.104598
1488 2 36.256000 40.117410 17.104598
1489 1 36.256000 40.896000 15.000000
1490 1 37.904000 42.389410 15.000000
1491 2 37.904000 43.168000 17.104598
1492 2 36.256000 44.661410 17.104598
1493 1 36.256000 45.440000 15.000000
1494 1 37.904000 46.933410 15.000000
1495 2 37.904000 47.712000 17.104598
1496 2 36.256000 49.205410 17.104598
1497 1 36.256000 49.984000 15.000000
1498 1 37.904000 51.477410 15.000000
1499 2 37.904000 52.256000 17.104598
1500 2 36.256000 53.749410 17.104598
1501 1 36.256000 54.528000 15.000000
1502 1 37.904000 56.021410 15.000000
1503 2 37.904000 56.800000 17.104598
1504 2 36.256000 58.293410 17.104598
1505 1 36.256000 59.072000 15.000000
1506 1 37.904000 60.565410 15.000000
1507 2 37.904000 61.344000 17.104598
1508 2 36.256000 62.837410 17.104598
1509 1 36.256000 63.616000 15.000000
1510 1 37.904000 65.109410 15.000000
1511 2 37.904000 65.888000 17.104598
1512 2 36.256000 67.381410 17.104598
1513 1 36.256000 68.160000 15.000000
1514 1 37.904000 69.653410 15.000000
1515 2 37.904000 70.432000 17.104598
1516 2 36.256000 71.925410 17.104598
1517 1 36.256000 72.704000 15.000000
1518 1 37.904000 74.197410 15.000000
1519 2 37.904000 74.976000 17.104598
1520 2 36.256000 76.469410 17.104598
1521 1 36.256000 77.248000 15.000000
1522 1 37.904000 78.741410 15.000000
1523 2 37.904000 79.520000 17.104598
1524 2 36.256000 81.013410 17.104598
1525 1 36.256000 81.792000 15.000000
1526 1 37.904000 83.285410 15.000000
1527 2 37.904000 84.064000 17.104598
1528 2 36.256000 85.557410 17.104598
1529 1 36.256000 86.336000 15.000000
1530 1 37.904000 87.829410 15.000000
1531 2 37.904000 88.608000 17.104598
1532 2 36.256000 90.101410 17.104598
1533 1 36.256000 90.880000 15.000000
1534 1 37.904000 92.373410 15.000000
1535 2 37.904000 93.152000 17.104598
1536 2 36.256000 94.645410 17.104598
1537 1 36.256000 95.424000 15.000000
1538 1 37.904000 96.917410 15.000000
1539 2 37.904000 97.696000 17.104598
1540 2 36.256000 99.189410 17.104598
1541 1 36.256000 99.968000 15.000000
1542 1 37.904000 101.461410 15.000000
1543 2 37.904000 102.240000 17.104598
1544 2 36.256000 103.733410 17.104598
1545 1 36.256000 104.512000 15.000000
1546 1 37.904000 106.005410 15.000000
1547 2 37.904000 106.784000 17.104598
1548 2 36.256000 108.277410 17.104598
1549 1 36.256000 109.056000 15.000000
1550 1 37.904000 110.549410 15.000000
1551 2 37.904000 111.328000 17.104598
1552 2 36.256000 112.821410 17.104598
1553 1 36.256000 113.600000 15.000000
1554 1 37.904000 115.093410 15.000000
1555 2 37.904000 115.872000 17.104598
1556 2 36.256000 117.365410 17.104598
1557 1 36.256000 118.144000 15.000000
1558 1 37.904000 119.637410 15.000000
1559 2 37.904000 120.416000 17.104598
1560 2 36.256000 121.909410 17.104598
1561 1 36.256000 122.688000 15.000000
1562 1 37.904000 124.181410 15.000000
1563 2 37.904000 124.960000 17.104598
1564 2 36.256000 126.453410 17.104598
1565 1 36.256000 127.232000 15.000000
1566 1 37.904000 128.725410 15.000000
1567 2 37.904000 129.504000 17.104598
1568 2 36.256000 130.997410 17.104598
1569 1 36.256000 131.776000 15.000000
1570 1 37.904000 133.269410 15.000000
1571 2 37.904000 134.048000 17.104598
1572 2 36.256000 135.541410 17.104598
1573 1 36.256000 136.320000 15.000000
1574 1 37.904000 137.813410 15.000000
1575 2 37.904000 138.592000 17.104598
1576 2 36.256000 140.085410 17.104598
1577 1 36.256000 140.864000 15.000000
1578 1 37.904000 142.357410 15.000000
1579 2 37.904000 143.136000 17.104598
1580 2 36.256000 144.629410 17.104598
1581 1 36.256000 145.408000 15.000000
1582 1 37.904000 146.901410 15.000000
1583 2 37.904000 147.680000 17.104598
1584 2 36.256000 149.173410 17.104598
1585 1 39.552000 0.000000 15.000000
1586 1 41.200000 1.493410 15.000000
1587 2 41.200000 2.272000 17.104598
1588 2 39.552000 3.765410 17.104598
1589 1 39.552000 4.544000 15.000000
1590 1 41.200000 6.037410 15.000000
1591 2 41.200000 6.816000 17.104598
1592 2 39.552000 8.309410 17.104598
1593 1 39.552000 9.088000 15.000000
1594 1 41.200000 10.581410 15.000000
1595 2 41.200000 11.360000 17.104598
1596 2 39.552000 12.853410 17.104598
1597 1 39.552000 13.632000 15.000000
1598 1 41.200000 15.125410 15.000000
1599 2 41.200000 15.904000 17.104598
1600 2 39.552000 17.397410 17.104598
1601 1 39.552000 18.176000 15.000000
1602 1 41.200000 19.669410 15.000000
1603 2 41.200000 20.448000 17.104598
1604 2 39.552000 21.941410 17.104598
1605 1 39.552000 22.720000 15.000000
1606 1 41.200000 24.213410 15.000000
1607 2 41.200000 24.992000 17.104598
1608 2 39.552000 26.485410 17.104598
1609 1 39.552000 27.264000 15.000000
1610 1 41.200000 28.757410 15.000000
1611 2 41.200000 29.536000 17.104598
1612 2 39.552000 31.029410 17.104598
1613 1 39.552000 31.808000 15.000000
1614 1 41.200000 33.301410 15.000000
1615 2 41.200000 34.080000 17.104598
1616 2 39.552000 35.573410 17.104598
1617 1 39.552000 36.352000 15.000000
1618 1 41.200000 37.845410 15.000000
1619 2 41.200000 38.624000 17.104598
1620 2 39.552000 40.117410 17.104598
1621 1 39.552000 40.896000 15.000000
1622 1 41.200000 42.389410 15.000000
1623 2 41.200000 43.168000 17.104598
1624 2 39.552000 44.661410 17.104598
1625 1 39.552000 45.440000 15.000000
1626 1 41.200000 46.933410 15.000000
1627 2 41.200000 47.712000 17.104598
1628 2 39.552000 49.205410 17.104598
1629 1 39.552000 49.984000 15.000000
1630 1 41.200000 51.477410 15.000000
1631 2 41.200000 52.256000 17.104598
1632 2 39.552000 53.749410 17.104598
1633 1 39.552000 54.528000 15.000000
1634 1 41.200000 56.021410 15.000000
1635 2 41.200000 56.800000 17.104598
1636 2 39.552000 58.293410 17.104598
1637 1 39.552000 59.072000 15.000000
1638 1 41.200000 60.565410 15.000000
1639 2 41.200000 61.344000 17.104598
1640 2 39.552000 62.837410 17.104598
1641 1 39.552000 63.616000 15.000000
1642 1 41.200000 65.109410 15.000000
1643 2 41.200000 65.888000 17.104598
1644 2 39.552000 67.381410 17.104598
1645 1 39.552000 68.160000 15.000000
1646 1 41.200000 69.653410 15.000000
1647 2 41.200000 70.432000 17.104598
1648 2 39.552000 71.925410 17.104598
1649 1 39.552000 72.704000 15.000000
1650 1 41.200000 74.197410 15.000000
1651 2 41.200000 74.976000 17.104598
1652 2 39.552000 76.469410 17.104598
1653 1 39.552000 77.248000 15.000000
1654 1 41.200000 78.741410 15.000000
1655 2 41.200000 79.520000 17.104598
1656 2 39.552000 81.013410 17.104598
1657 1 39.552000 81.792000 15.000000
1658 1 41.200000 83.285410 15.000000
1659 2 41.200000 84.064000 17.104598
1660 2 39.552000 85.557410 17.104598
1661 1 39.552000 86.336000 15.000000
1662 1 41.200000 87.829410 15.000000
1663 2 41.200000 88.608000 17.104598
1664 2 39.552000 90.101410 17.104598
1665 1 39.552000 90.880000 15.000000
1666 1 41.200000 92.373410 15.000000
1667 2 41.200000 93.152000 17.104598
1668 2 39.552000 94.645410 17.104598
1669 1 39.552000 95.424000 15.000000
1670 1 41.200000 96.917410 15.000000
1671 2 41.200000 97.696000 17.104598
1672 2 39.552000 99.189410 17.104598
1673 1 39.552000 99.968000 15.000000
1674 1 41.200000 101.461410 15.000000
1675 2 41.200000 102.240000 17.104598
1676 2 39.552000 103.733410 17.104598
1677 1 39.552000 104.512000 15.000000
1678 1 41.200000 106.005410 15.000000
1679 2 41.200000 106.784000 17.104598
1680 2 39.552000 108.277410 17.104598
1681 1 39.552000 109.056000 15.000000
1682 1 41.200000 110.549410 15.000000
1683 2 41.200000 111.328000 17.104598
1684 2 39.552000 112.821410 17.104598
1685 1 39.552000 113.600000 15.000000
1686 1 41.200000 115.093410 15.000000
1687 2 41.200000 115.872000 17.104598
1688 2 39.552000 117.365410 17.104598
1689 1 39.552000 118.144000 15.000000
1690 1 41.200000 119.637410 15.000000
1691 2 41.200000 120.416000 17.104598
1692 2 39.552000 121.909410 17.104598
1693 1 39.552000 122.688000 15.000000
1694 1 41.200000 124.181410 15.000000
1695 2 41.200000 124.960000 17.104598
1696 2 39.552000 126.453410 17.104598
1697 1 39.552000 127.232000 15.000000
1698 1 41.200000 128.725410 15.000000
1699 2 41.200000 129.504000 17.104598
1700 2 39.552000 130.997410 17.104598
1701 1 39.552000 131.776000 15.000000
1702 1 41.200000 133.269410 15.000000
1703 2 41.200000 134.048000 17.104598
1704 2 39.552000 135.541410 17.104598
1705 1 39.552000 136.320000 15.000000
1706 1 41.200000 137.813410 15.000000
1707 2 41.200000 138.592000 17.104598
1708 2 39.552000 140.085410 17.104598
1709 1 39.552000 140.864000 15.000000
1710 1 41.200000 142.357410 15.000000
1711 2 41.200000 143.136000 17.104598
1712 2 39.552000 144.629410 17.104598
1713 1 39.552000 145.408000 15.000000
1714 1 41.200000 146.901410 15.000000
1715 2 41.200000 147.680000 17.104598
1716 2 39.552000 149.173410 17.104598
1717 1 42.848000 0.000000 15.000000
1718 1 44.496000 1.493410 15.000000
1719 2 44.496000 2.272000 17.104598
1720 2 42.848000 3.765410 17.104598
1721 1 42.848000 4.544000 15.000000
1722 1 44.496000 6.037410 15.000000
1723 2 44.496000 6.816000 17.104598
1724 2 42.848000 8.309410 17.104598
1725 1 42.848000 9.088000 15.000000
1726 1 44.496000 10.581410 15.000000
1727 2 44.496000 11.360000 17.104598
1728 2 42.848000 12.853410 17.104598
1729 1 42.848000 13.632000 15.000000
1730 1 44.496000 15.125410 15.000000
1731 2 44.496000 15.904000 17.104598
1732 2 42.848000 17.397410 17.104598
1733 1 42.848000 18.176000 15.000000
1734 1 44.496000 19.669410 15.000000
1735 2 44.496000 20.448000 17.104598
1736 2 42.848000 21.941410 17.104598
1737 1 42.848000 22.720000 15.000000
1738 1 44.496000 24.213410 15.000000
1739 2 44.496000 24.992000 17.104598
1740 2 42.848000 26.485410 17.104598
1741 1 42.848000 27.264000 15.000000
1742 1 44.496000 28.757410 15.000000
1743 2 44.496000 29.536000 17.104598
1744 2 42.848000 31.029410 17.104598
1745 1 42.848000 31.808000 15.000000
1746 1 44.496000 33.301410 15.000000
1747 2 44.496000 34.080000 17.104598
1748 2 42.848000 35.573410 17.104598
1749 1 42.848000 36.352000 15.000000
1750 1 44.496000 37.845410 15.000000
1751 2 44.496000 38.624000 17.104598
1752 2 42.848000 40.117410 17.104598
1753 1 42.848000 40.896000 15.000000
1754 1 44.496000 42.389410 15.000000
1755 2 44.496000 43.168000 17.104598
1756 2 42.848000 44.661410 17.104598
1757 1 42.848000 45.440000 15.000000
1758 1 44.496000 46.933410 15.000000
1759 2 44.496000 47.712000 17.104598
1760 2 42.848000 49.205410 17.104598
1761 1 42.848000 49.984000 15.000000
1762 1 44.496000 51.477410 15.000000
1763 2 44.496000 52.256000 17.104598
1764 2 42.848000 53.749410 17.104598
1765 1 42.848000 54.528000 15.000000
1766 1 44.496000 56.021410 15.000000
1767 2 44.496000 56.800000 17.104598
1768 2 42.848000 58.293410 17.104598
1769 1 42.848000 59.072000 15.000000
1770 1 44.496000 60.565410 15.000000
1771 2 44.496000 61.344000 17.104598
1772 2 42.848000 62.837410 17.104598
1773 1 42.848000 63.616000 15.000000
1774 1 44.496000 65.109410 15.000000
1775 2 44.496000 65.888000 17.104598
1776 2 42.848000 67.381410 17.104598
1777 1 42.848000 68.160000 15.000000
1778 1 44.496000 69.653410 15.000000
1779 2 44.496000 70.432000 17.104598
1780 2 42.848000 71.925410 17.104598
1781 1 42.848000 72.704000 15.000000
1782 1 44.496000 74.197410 15.000000
1783 2 44.496000 74.976000 17.104598
1784 2 42.848000 76.469410 17.104598
1785 1 42.848000 77.248000 15.000000
1786 1 44.496000 78.741410 15.000000
1787 2 44.496000 79.520000 17.104598
1788 2 42.848000 81.013410 17.104598
1789 1 42.848000 81.792000 15.000000
1790 1 44.496000 83.285410 15.000000
1791 2 44.496000 84.064000 17.104598
1792 2 42.848000 85.557410 17.104598
1793 1 42.848000 86.336000 15.000000
1794 1 44.496000 87.829410 15.000000
1795 2 44.496000 88.608000 17.104598
1796 2 42.848000 90.101410 17.104598
1797 1 42.848000 90.880000 15.000000
1798 1 44.496000 92.373410 15.000000
1799 2 44.496000 93.152000 17.104598
1800 2 42.848000 94.645410 17.104598
1801 1 42.848000 95.424000 15.000000
1802 1 44.496000 96.917410 15.000000
1803 2 44.496000 97.696000 17.104598
1804 2 42.848000 99.189410 17.104598
1805 1 42.848000 99.968000 15.000000
1806 1 44.496000 101.461410 15.000000
1807 2 44.496000 102.240000 17.104598
1808 2 42.848000 103.733410 17.104598
1809 1 42.848000 104.512000 15.000000
1810 1 44.496000 106.005410 15.000000
1811 2 44.496000 106.784000 17.104598
1812 2 42.848000 108.277410 17.104598
1813 1 42.848000 109.056000 15.000000
1814 1 44.496000 110.549410 15.000000
1815 2 44.496000 111.328000 17.104598
1816 2 42.848000 112.821410 17.104598
1817 1 42.848000 113.600000 15.000000
1818 1 44.496000 115.093410 15.000000
1819 2 44.496000 115.872000 17.104598
1820 2 42.848000 117.365410 17.104598
1821 1 42.848000 118.144000 15.000000
1822 1 44.496000 119.637410 15.000000
1823 2 44.496000 120.416000 17.104598
1824 2 42.848000 121.909410 17.104598
1825 1 42.848000 122.688000 15.000000
1826 1 44.496000 124.181410 15.000000
1827 2 44.496000 124.960000 17.104598
1828 2 42.848000 126.453410 17.104598
1829 1 42.848000 127.232000 15.000000
1830 1 44.496000 128.725410 15.000000
1831 2 44.496000 129.504000 17.104598
1832 2 42.848000 130.997410 17.104598
1833 1 42.848000 131.776000 15.000000
1834 1 44.496000 133.269410 15.000000
1835 2 44.496000 134.048000 17.104598
1836 2 42.848000 135.541410 17.104598
1837 1 42.848000 136.320000 15.000000
1838 1 44.496000 137.813410 15.000000
1839 2 44.496000 138.592000 17.104598
1840 2 42.848000 140.085410 17.104598
1841 1 42.848000 140.864000 15.000000
1842 1 44.496000 142.357410 15.000000
1843 2 44.496000 143.136000 17.104598
1844 2 42.848000 144.629410 17.104598
1845 1 42.848000 145.408000 15.000000
1846 1 44.496000 146.901410 15.000000
1847 2 44.496000 147.680000 17.104598
1848 2 42.848000 149.173410 17.104598
1849 1 46.144000 0.000000 15.000000
1850 1 47.792000 1.493410 15.000000
1851 2 47.792000 2.272000 17.104598
1852 2 46.144000 3.765410 17.104598
1853 1 46.144000 4.544000 15.000000
1854 1 47.792000 6.037410 15.000000
1855 2 47.792000 6.816000 17.104598
1856 2 46.144000 8.309410 17.104598
1857 1 46.144000 9.088000 15.000000
1858 1 47.792000 10.581410 15.000000
1859 2 47.792000 11.360000 17.104598
1860 2 46.144000 12.853410 17.104598
1861 1 46.144000 13.632000 15.000000
1862 1 47.792000 15.125410 15.000000
1863 2 47.792000 15.904000 17.104598
1864 2 46.144000 17.397410 17.104598
1865 1 46.144000 18.176000 15.000000
1866 1 47.792000 19.669410 15.000000
1867 2 47.792000 20.448000 17.104598
1868 2 46.144000 21.941410 17.104598
1869 1 46.144000 22.720000 15.000000
1870 1 47.792000 24.213410 15.000000
1871 2 47.792000 24.992000 17.104598
1872 2 46.144000 26.485410 17.104598
1873 1 46.144000 27.264000 15.000000
1874 1 47.792000 28.757410 15.000000
1875 2 47.792000 29.536000 17.104598
1876 2 46.144000 31.029410 17.104598
1877 1 46.144000 31.808000 15.000000
1878 1 47.792000 33.301410 15.000000
1879 2 47.792000 34.080000 17.104598
1880 2 46.144000 35.573410 17.104598
1881 1 46.144000 36.352000 15.000000
1882 1 47.792000 37.845410 15.000000
1883 2 47.792000 38.624000 17.104598
1884 2 46.144000 40.117410 17.104598
1885 1 46.144000 40.896000 15.000000
1886 1 47.792000 42.389410 15.000000
1887 2 47.792000 43.168000 17.104598
1888 2 46.144000 44.661410 17.104598
1889 1 46.144000 45.440000 15.000000
1890 1 47.792000 46.933410 15.000000
1891 2 47.792000 47.712000 17.104598
1892 2 46.144000 49.205410 17.104598
1893 1 46.144000 49.984000 15.000000
1894 1 47.792000 51.477410 15.000000
1895 2 47.792000 52.256000 17.104598
1896 2 46.144000 53.749410 17.104598
1897 1 46.144000 54.528000 15.000000
1898 1 47.792000 56.021410 15.000000
1899 2 47.792000 56.800000 17.104598
1900 2 46.144000 58.293410 17.104598
1901 1 46.144000 59.072000 15.000000
1902 1 47.792000 60.565410 15.000000
1903 2 47.792000 61.344000 17.104598
1904 2 46.144000 62.837410 17.104598
1905 1 46.144000 63.616000 15.000000
1906 1 47.792000 65.109410 15.000000
1907 2 47.792000 65.888000 17.104598
1908 2 46.144000 67.381410 17.104598
1909 1 46.144000 68.160000 15.000000
1910 1 47.792000 69.653410 15.000000
1911 2 47.792000 70.432000 17.104598
1912 2 46.144000 71.925410 17.104598
1913 1 46.144000 72.704000 15.000000
1914 1 47.792000 74.197410 15.000000
1915 2 47.792000 74.976000 17.104598
1916 2 46.144000 76.469410 17.104598
1917 1 46.144000 77.248000 15.000000
1918 1 47.792000 78.741410 15.000000
1919 2 47.792000 79.520000 17.104598
1920 2 46.144000 81.013410 17.104598
1921 1 46.144000 81.792000 15.000000
1922 1 47.792000 83.285410 15.000000
1923 2 47.792000 84.064000 17.104598
1924 2 46.144000 85.557410 17.104598
1925 1 46.144000 86.336000 15.000000
1926 1 47.792000 87.829410 15.000000
1927 2 47.792000 88.608000 17.104598
1928 2 46.144000 90.101410 17.104598
1929 1 46.144000 90.880000 15.000000
1930 1 47.792000 92.373410 15.000000
1931 2 47.792000 93.152000 17.104598
1932 2 46.144000 94.645410 17.104598
1933 1 46.144000 95.424000 15.000000
1934 1 47.792000 96.917410 15.000000
1935 2 47.792000 97.696000 17.104598
1936 2 46.144000 99.189410 17.104598
1937 1 46.144000 99.968000 15.000000
1938 1 47.792000 101.461410 15.000000
1939 2 47.792000 102.240000 17.104598
1940 2 46.144000 103.733410 17.104598
1941 1 46.144000 104.512000 15.000000
1942 1 47.792000 106.005410 15.000000
1943 2 47.792000 106.784000 17.104598
1944 2 46.144000 108.277410 17.104598
1945 1 46.144000 109.056000 15.000000
1946 1 47.792000 110.549410 15.000000
1947 2 47.792000 111.328000 17.104598
1948 2 46.144000 112.821410 17.104598
1949 1 46.144000 113.600000 15.000000
1950 1 47.792000 115.093410 15.000000
1951 2 47.792000 115.872000 17.104598
1952 2 46.144000 117.365410 17.104598
1953 1 46.144000 118.144000 15.000000
1954 1 47.792000 119.637410 15.000000
1955 2 47.792000 120.416000 17.104598
1956 2 46.144000 121.909410 17.104598
1957 1 46.144000 122.688000 15.000000
1958 1 47.792000 124.181410 15.000000
1959 2 47.792000 124.960000 17.104598
1960 2 46.144000 126.453410 17.104598
1961 1 46.144000 127.232000 15.000000
1962 1 47.792000 128.725410 15.000000
1963 2 47.792000 129.504000 17.104598
1964 2 46.144000 130.997410 17.104598
1965 1 46.144000 131.776000 15.000000
1966 1 47.792000 133.269410 15.000000
1967 2 47.792000 134.048000 17.104598
1968 2 46.144000 135.541410 17.104598
1969 1 46.144000 136.320000 15.000000
1970 1 47.792000 137.813410 15.000000
1971 2 47.792000 138.592000 17.104598
1972 2 46.144000 140.085410 17.104598
1973 1 46.144000 140.864000 15.000000
1974 1 47.792000 142.357410 15.000000
1975 2 47.792000 143.136000 17.104598
1976 2 46.144000 144.629410 17.104598
1977 1 46.144000 145.408000 15.000000
1978 1 47.792000 146.901410 15.000000
1979 2 47.792000 147.680000 17.104598
1980 2 46.144000 149.173410 17.104598
1981 1 49.440000 0.000000 15.000000
1982 1 51.088000 1.493410 15.000000
1983 2 51.088000 2.272000 17.104598
1984 2 49.440000 3.765410 17.104598
1985 1 49.440000 4.544000 15.000000
1986 1 51.088000 6.037410 15.000000
1987 2 51.088000 6.816000 17.104598
1988 2 49.440000 8.309410 17.104598
1989 1 49.440000 9.088000 15.000000
1990 1 51.088000 10.581410 15.000000
1991 2 51.088000 11.360000 17.104598
1992 2 49.440000 12.853410 17.104598
1993 1 49.440000 13.632000 15.000000
1994 1 51.088000 15.125410 15.000000
1995 2 51.088000 15.904000 17.104598
1996 2 49.440000 17.397410 17.104598
1997 1 49.440000 18.176000 15.000000
1998 1 51.088000 19.669410 15.000000
1999 2 51.088000 20.448000 17.104598
2000 2 49.440000 21.941410 17.104598
2001 1 49.440000 22.720000 15.000000
2002 1 51.088000 24.213410 15.000000
2003 2 51.088000 24.992000 17.104598
2004 2 49.440000 26.485410 17.104598
2005 1 49.440000 27.264000 15.000000
2006 1 51.088000 28.757410 15.000000
2007 2 51.088000 29.536000 17.104598
2008 2 49.440000 31.029410 17.104598
2009 1 49.440000 31.808000 15.000000
2010 1 51.088000 33.301410 15.000000
2011 2 51.088000 34.080000 17.104598
2012 2 49.440000 35.573410 17.104598
2013 1 49.440000 36.352000 15.000000
2014 1 51.088000 37.845410 15.000000
2015 2 51.088000 38.624000 17.104598
2016 2 49.440000 40.117410 17.104598
2017 1 49.440000 40.896000 15.000000
2018 1 51.088000 42.389410 15.000000
2019 2 51.088000 43.168000 17.104598
2020 2 49.440000 44.661410 17.104598
2021 1 49.440000 45.440000 15.000000
2022 1 51.088000 46.933410 15.000000
2023 2 51.088000 47.712000 17.104598
2024 2 49.440000 49.205410 17.104598
2025 1 49.440000 49.984000 15.000000
2026 1 51.088000 51.477410 15.000000
2027 2 51.088000 52.256000 17.104598
2028 2 49.440000 53.749410 17.104598
2029 1 49.440000 54.528000 15.000000
2030 1 51.088000 56.021410 15.000000
2031 2 51.088000 56.800000 17.104598
2032 2 49.440000 58.293410 17.104598
2033 1 49.440000 59.072000 15.000000
2034 1 51.088000 60.565410 15.000000
2035 2 51.088000 61.344000 17.104598
2036 2 49.440000 62.837410 17.104598
2037 1 49.440000 63.616000 15.000000
2038 1 51.088000 65.109410 15.000000
2039 2 51.088000 65.888000 17.104598
2040 2 49.440000 67.381410 17.104598
2041 1 49.440000 68.160000 15.000000
2042 1 51.088000 69.653410 15.000000
2043 2 51.088000 70.432000 17.104598
2044 2 49.440000 71.925410 17.104598
2045 1 49.440000 72.704000 15.000000
2046 1 51.088000 74.197410 15.000000
2047 2 51.088000 74.976000 17.104598
2048 2 49.440000 76.469410 17.104598
2049 1 49.440000 77.248000 15.000000
2050 1 51.088000 78.741410 15.000000
2051 2 51.088000 79.520000 17.104598
2052 2 49.440000 81.013410 17.104598
2053 1 49.440000 81.792000 15.000000
2054 1 51.088000 83.285410 15.000000
2055 2 51.088000 84.064000 17.104598
2056 2 49.440000 85.557410 17.104598
2057 1 49.440000 86.336000 15.000000
2058 1 51.088000 87.829410 15.000000
2059 2 51.088000 88.608000 17.104598
2060 2 49.440000 90.101410 17.104598
2061 1 49.440000 90.880000 15.000000
2062 1 51.088000 92.373410 15.000000
2063 2 51.088000 93.152000 17.104598
2064 2 49.440000 94.645410 17.104598
2065 1 49.440000 95.424000 15.000000
2066 1 51.088000 96.917410 15.000000
2067 2 51.088000 97.696000 17.104598
2068 2 49.440000 99.189410 17.104598
2069 1 49.440000 99.968000 15.000000
2070 1 51.088000 101.461410 15.000000
2071 2 51.088000 102.240000 17.104598
2072 2 49.440000 103.733410 17.104598
2073 1 49.440000 104.512000 15.000000
2074 1 51.088000 106.005410 15.000000
2075 2 51.088000 106.784000 17.104598
2076 2 49.440000 108.277410 17.104598
2077 1 49.440000 109.056000 15.000000
2078 1 51.088000 110.549410 15.000000
2079 2 51.088000 111.328000 17.104598
2080 2 49.440000 112.821410 17.104598
2081 1 49.440000 113.600000 15.000000
2082 1 51.088000 115.093410 15.000000
2083 2 51.088000 115.872000 17.104598
2084 2 49.440000 117.365410 17.104598
2085 1 49.440000 118.144000 15.000000
2086 1 51.088000 119.637410 15.000000
2087 2 51.088000 120.416000 17.104598
2088 2 49.440000 121.909410 17.104598
2089 1 49.440000 122.688000 15.000000
2090 1 51.088000 124.181410 15.000000
2091 2 51.088000 124.960000 17.104598
2092 2 49.440000 126.453410 17.104598
2093 1 49.440000 127.232000 15.000000
2094 1 51.088000 128.725410 15.000000
2095 2 51.088000 129.504000 17.104598
2096 2 49.440000 130.997410 17.104598
2097 1 49.440000 131.776000 15.000000
2098 1 51.088000 133.269410 15.000000
2099 2 51.088000 134.048000 17.104598
2100 2 49.440000 135.541410 17.104598
2101 1 49.440000 136.320000 15.000000
2102 1 51.088000 137.813410 15.000000
2103 2 51.088000 138.592000 17.104598
2104 2 49.440000 140.085410 17.104598
2105 1 49.440000 140.864000 15.000000
2106 1 51.088000 142.357410 15.000000
2107 2 51.088000 143.136000 17.104598
2108 2 49.440000 144.629410 17.104598
2109 1 49.440000 145.408000 15.000000
2110 1 51.088000 146.901410 15.000000
2111 2 51.088000 147.680000 17.104598
2112 2 49.440000 149.173410 17.104598
