Monolayer black phosphorus (type1=B bottom pucker, type2=T top pucker)

4368 atoms
2 atom types

0.0 299.936000 xlo xhi
0.0 54.528000 ylo yhi
0.0 32.104598 zlo zhi

Masses

1 30.973762
2 30.973762

Atoms # atomic

1 1 0.000000 0.000000 15.000000
2 1 1.648000 1.493410 15.000000
3 2 1.648000 2.272000 17.104598
4 2 0.000000 3.765410 17.104598
5 1 0.000000 4.544000 15.000000
6 1 1.648000 6.037410 15.000000
7 2 1.648000 6.816000 17.104598
8 2 0.000000 8.309410 17.104598
9 1 0.000000 9.088000 15.000000
10 1 1.648000 10.581410 15.000000
11 2 1.648000 11.360000 17.104598
12 2 0.000000 12.853410 17.104598
13 1 0.000000 13.632000 15.000000
14 1 1.648000 15.125410 15.000000
15 2 1.648000 15.904000 17.104598
16 2 0.000000 17.397410 17.104598
17 1 0.000000 18.176000 15.000000
18 1 1.648000 19.669410 15.000000
19 2 1.648000 20.448000 17.104598
20 2 0.000000 21.941410 17.104598
21 1 0.000000 22.720000 15.000000
22 1 1.648000 24.213410 15.000000
23 2 1.648000 24.992000 17.104598
24 2 0.000000 26.485410 17.104598
25 1 0.000000 27.264000 15.000000
26 1 1.648000 28.757410 15.000000
27 2 1.648000 29.536000 17.104598
28 2 0.000000 31.029410 17.104598
29 1 0.000000 31.808000 15.000000
30 1 1.648000 33.301410 15.000000
31 2 1.648000 34.080000 17.104598
32 2 0.000000 35.573410 17.104598
33 1 0.000000 36.352000 15.000000
34 1 1.648000 37.845410 15.000000
35 2 1.648000 38.624000 17.104598
36 2 0.000000 40.117410 17.104598
37 1 0.000000 40.896000 15.000000
38 1 1.648000 42.389410 15.000000
39 2 1.648000 43.168000 17.104598
40 2 0.000000 44.661410 17.104598
41 1 0.000000 45.440000 15.000000
42 1 1.648000 46.933410 15.000000
43 2 1.648000 47.712000 17.104598
44 2 0.000000 49.205410 17.104598
45 1 0.000000 49.984000 15.000000
46 1 1.648000 51.477410 15.000000
47 2 1.648000 52.256000 17.104598
48 2 0.000000 53.749410 17.104598
49 1 3.296000 0.000000 15.000000
50 1 4.944000 1.493410 15.000000
51 2 4.944000 2.272000 17.104598
52 2 3.296000 3.765410 17.104598
53 1 3.296000 4.544000 15.000000
54 1 4.944000 6.037410 15.000000
55 2 4.944000 6.816000 17.104598
56 2 3.296000 8.309410 17.104598
57 1 3.296000 9.088000 15.000000
58 1 4.944000 10.581410 15.000000
59 2 4.944000 11.360000 17.104598
60 2 3.296000 12.853410 17.104598
61 1 3.296000 13.632000 15.000000
62 1 4.944000 15.125410 15.000000
63 2 4.944000 15.904000 17.104598
64 2 3.296000 17.397410 17.104598
65 1 3.296000 18.176000 15.000000
66 1 4.944000 19.669410 15.000000
67 2 4.944000 20.448000 17.104598
68 2 3.296000 21.941410 17.104598
69 1 3.296000 22.720000 15.000000
70 1 4.944000 24.213410 15.000000
71 2 4.944000 24.992000 17.104598
72 2 3.296000 26.485410 17.104598
73 1 3.296000 27.264000 15.000000
74 1 4.944000 28.757410 15.000000
75 2 4.944000 29.536000 17.104598
76 2 3.296000 31.029410 17.104598
77 1 3.296000 31.808000 15.000000
78 1 4.944000 33.301410 15.000000
79 2 4.944000 34.080000 17.104598
80 2 3.296000 35.573410 17.104598
81 1 3.296000 36.352000 15.000000
82 1 4.944000 37.845410 15.000000
83 2 4.944000 38.624000 17.104598
84 2 3.296000 40.117410 17.104598
85 1 3.296000 40.896000 15.000000
86 1 4.944000 42.389410 15.000000
87 2 4.944000 43.168000 17.104598
88 2 3.296000 44.661410 17.104598
89 1 3.296000 45.440000 15.000000
90 1 4.944000 46.933410 15.000000
91 2 4.944000 47.712000 17.104598
92 2 3.296000 49.205410 17.104598
93 1 3.296000 49.984000 15.000000
94 1 4.944000 51.477410 15.000000
95 2 4.944000 52.256000 17.104598
96 2 3.296000 53.749410 17.104598
97 1 6.592000 0.000000 15.000000
98 1 8.240000 1.493410 15.000000
99 2 8.240000 2.272000 17.104598
100 2 6.592000 3.765410 17.104598
101 1 6.592000 4.544000 15.000000
102 1 8.240000 6.037410 15.000000
103 2 8.240000 6.816000 17.104598
104 2 6.592000 8.309410 17.104598
105 1 6.592000 9.088000 15.000000
106 1 8.240000 10.581410 15.000000
107 2 8.240000 11.360000 17.104598
108 2 6.592000 12.853410 17.104598
109 1 6.592000 13.632000 15.000000
110 1 8.240000 15.125410 15.000000
111 2 8.240000 15.904000 17.104598
112 2 6.592000 17.397410 17.104598
113 1 6.592000 18.176000 15.000000
114 1 8.240000 19.669410 15.000000
115 2 8.240000 20.448000 17.104598
116 2 6.592000 21.941410 17.104598
117 1 6.592000 22.720000 15.000000
118 1 8.240000 24.213410 15.000000
119 2 8.240000 24.992000 17.104598
120 2 6.592000 26.485410 17.104598
121 1 6.592000 27.264000 15.000000
122 1 8.240000 28.757410 15.000000
123 2 8.240000 29.536000 17.104598
124 2 6.592000 31.029410 17.104598
125 1 6.592000 31.808000 15.000000
126 1 8.240000 33.301410 15.000000
127 2 8.240000 34.080000 17.104598
128 2 6.592000 35.573410 17.104598
129 1 6.592000 36.352000 15.000000
130 1 8.240000 37.845410 15.000000
131 2 8.240000 38.624000 17.104598
132 2 6.592000 40.117410 17.104598
133 1 6.592000 40.896000 15.000000
134 1 8.240000 42.389410 15.000000
135 2 8.240000 43.168000 17.104598
136 2 6.592000 44.661410 17.104598
137 1 6.592000 45.440000 15.000000
138 1 8.240000 46.933410 15.000000
139 2 8.240000 47.712000 17.104598
140 2 6.592000 49.205410 17.104598
141 1 6.592000 49.984000 15.000000
142 1 8.240000 51.477410 15.000000
143 2 8.240000 52.256000 17.104598
144 2 6.592000 53.749410 17.104598
145 1 9.888000 0.000000 15.000000
146 1 11.536000 1.493410 15.000000
147 2 11.536000 2.272000 17.104598
148 2 9.888000 3.765410 17.104598
149 1 9.888000 4.544000 15.000000
150 1 11.536000 6.037410 15.000000
151 2 11.536000 6.816000 17.104598
152 2 9.888000 8.309410 17.104598
153 1 9.888000 9.088000 15.000000
154 1 11.536000 10.581410 15.000000
155 2 11.536000 11.360000 17.104598
156 2 9.888000 12.853410 17.104598
157 1 9.888000 13.632000 15.000000
158 1 11.536000 15.125410 15.000000
159 2 11.536000 15.904000 17.104598
160 2 9.888000 17.397410 17.104598
161 1 9.888000 18.176000 15.000000
162 1 11.536000 19.669410 15.000000
163 2 11.536000 20.448000 17.104598
164 2 9.888000 21.941410 17.104598
165 1 9.888000 22.720000 15.000000
166 1 11.536000 24.213410 15.000000
167 2 11.536000 24.992000 17.104598
168 2 9.888000 26.485410 17.104598
169 1 9.888000 27.264000 15.000000
170 1 11.536000 28.757410 15.000000
171 2 11.536000 29.536000 17.104598
172 2 9.888000 31.029410 17.104598
173 1 9.888000 31.808000 15.000000
174 1 11.536000 33.301410 15.000000
175 2 11.536000 34.080000 17.104598
176 2 9.888000 35.573410 17.104598
177 1 9.888000 36.352000 15.000000
178 1 11.536000 37.845410 15.000000
179 2 11.536000 38.624000 17.104598
180 2 9.888000 40.117410 17.104598
181 1 9.888000 40.896000 15.000000
182 1 11.536000 42.389410 15.000000
183 2 11.536000 43.168000 17.104598
184 2 9.888000 44.661410 17.104598
185 1 9.888000 45.440000 15.000000
186 1 11.536000 46.933410 15.000000
187 2 11.536000 47.712000 17.104598
188 2 9.888000 49.205410 17.104598
189 1 9.888000 49.984000 15.000000
190 1 11.536000 51.477410 15.000000
191 2 11.536000 52.256000 17.104598
192 2 9.888000 53.749410 17.104598
193 1 13.184000 0.000000 15.000000
194 1 14.832000 1.493410 15.000000
195 2 14.832000 2.272000 17.104598
196 2 13.184000 3.765410 17.104598
197 1 13.184000 4.544000 15.000000
198 1 14.832000 6.037410 15.000000
199 2 14.832000 6.816000 17.104598
200 2 13.184000 8.309410 17.104598
201 1 13.184000 9.088000 15.000000
202 1 14.832000 10.581410 15.000000
203 2 14.832000 11.360000 17.104598
204 2 13.184000 12.853410 17.104598
205 1 13.184000 13.632000 15.000000
206 1 14.832000 15.125410 15.000000
207 2 14.832000 15.904000 17.104598
208 2 13.184000 17.397410 17.104598
209 1 13.184000 18.176000 15.000000
210 1 14.832000 19.669410 15.000000
211 2 14.832000 20.448000 17.104598
212 2 13.184000 21.941410 17.104598
213 1 13.184000 22.720000 15.000000
214 1 14.832000 24.213410 15.000000
215 2 14.832000 24.992000 17.104598
216 2 13.184000 26.485410 17.104598
217 1 13.184000 27.264000 15.000000
218 1 14.832000 28.757410 15.000000
219 2 14.832000 29.536000 17.104598
220 2 13.184000 31.029410 17.104598
221 1 13.184000 31.808000 15.000000
222 1 14.832000 33.301410 15.000000
223 2 14.832000 34.080000 17.104598
224 2 13.184000 35.573410 17.104598
225 1 13.184000 36.352000 15.000000
226 1 14.832000 37.845410 15.000000
227 2 14.832000 38.624000 17.104598
228 2 13.184000 40.117410 17.104598
229 1 13.184000 40.896000 15.000000
230 1 14.832000 42.389410 15.000000
231 2 14.832000 43.168000 17.104598
232 2 13.184000 44.661410 17.104598
233 1 13.184000 45.440000 15.000000
234 1 14.832000 46.933410 15.000000
235 2 14.832000 47.712000 17.104598
236 2 13.184000 49.205410 17.104598
237 1 13.184000 49.984000 15.000000
238 1 14.832000 51.477410 15.000000
239 2 14.832000 52.256000 17.104598
240 2 13.184000 53.749410 17.104598
241 1 16.480000 0.000000 15.000000
242 1 18.128000 1.493410 15.000000
243 2 18.128000 2.272000 17.104598
244 2 16.480000 3.765410 17.104598
245 1 16.480000 4.544000 15.000000
246 1 18.128000 6.037410 15.000000
247 2 18.128000 6.816000 17.104598
248 2 16.480000 8.309410 17.104598
249 1 16.480000 9.088000 15.000000
250 1 18.128000 10.581410 15.000000
251 2 18.128000 11.360000 17.104598
252 2 16.480000 12.853410 17.104598
253 1 16.480000 13.632000 15.000000
254 1 18.128000 15.125410 15.000000
255 2 18.128000 15.904000 17.104598
256 2 16.480000 17.397410 17.104598
257 1 16.480000 18.176000 15.000000
258 1 18.128000 19.669410 15.000000
259 2 18.128000 20.448000 17.104598
260 2 16.480000 21.941410 17.104598
261 1 16.480000 22.720000 15.000000
262 1 18.128000 24.213410 15.000000
263 2 18.128000 24.992000 17.104598
264 2 16.480000 26.485410 17.104598
265 1 16.480000 27.264000 15.000000
266 1 18.128000 28.757410 15.000000
267 2 18.128000 29.536000 17.104598
268 2 16.480000 31.029410 17.104598
269 1 16.480000 31.808000 15.000000
270 1 18.128000 33.301410 15.000000
271 2 18.128000 34.080000 17.104598
272 2 16.480000 35.573410 17.104598
273 1 16.480000 36.352000 15.000000
274 1 18.128000 37.845410 15.000000
275 2 18.128000 38.624000 17.104598
276 2 16.480000 40.117410 17.104598
277 1 16.480000 40.896000 15.000000
278 1 18.128000 42.389410 15.000000
279 2 18.128000 43.168000 17.104598
280 2 16.480000 44.661410 17.104598
281 1 16.480000 45.440000 15.000000
282 1 18.128000 46.933410 15.000000
283 2 18.128000 47.712000 17.104598
284 2 16.480000 49.205410 17.104598
285 1 16.480000 49.984000 15.000000
286 1 18.128000 51.477410 15.000000
287 2 18.128000 52.256000 17.104598
288 2 16.480000 53.749410 17.104598
289 1 19.776000 0.000000 15.000000
290 1 21.424000 1.493410 15.000000
291 2 21.424000 2.272000 17.104598
292 2 19.776000 3.765410 17.104598
293 1 19.776000 4.544000 15.000000
294 1 21.424000 6.037410 15.000000
295 2 21.424000 6.816000 17.104598
296 2 19.776000 8.309410 17.104598
297 1 19.776000 9.088000 15.000000
298 1 21.424000 10.581410 15.000000
299 2 21.424000 11.360000 17.104598
300 2 19.776000 12.853410 17.104598
301 1 19.776000 13.632000 15.000000
302 1 21.424000 15.125410 15.000000
303 2 21.424000 15.904000 17.104598
304 2 19.776000 17.397410 17.104598
305 1 19.776000 18.176000 15.000000
306 1 21.424000 19.669410 15.000000
307 2 21.424000 20.448000 17.104598
308 2 19.776000 21.941410 17.104598
309 1 19.776000 22.720000 15.000000
310 1 21.424000 24.213410 15.000000
311 2 21.424000 24.992000 17.104598
312 2 19.776000 26.485410 17.104598
313 1 19.776000 27.264000 15.000000
314 1 21.424000 28.757410 15.000000
315 2 21.424000 29.536000 17.104598
316 2 19.776000 31.029410 17.104598
317 1 19.776000 31.808000 15.000000
318 1 21.424000 33.301410 15.000000
319 2 21.424000 34.080000 17.104598
320 2 19.776000 35.573410 17.104598
321 1 19.776000 36.352000 15.000000
322 1 21.424000 37.845410 15.000000
323 2 21.424000 38.624000 17.104598
324 2 19.776000 40.117410 17.104598
325 1 19.776000 40.896000 15.000000
326 1 21.424000 42.389410 15.000000
327 2 21.424000 43.168000 17.104598
328 2 19.776000 44.661410 17.104598
329 1 19.776000 45.440000 15.000000
330 1 21.424000 46.933410 15.000000
331 2 21.424000 47.712000 17.104598
332 2 19.776000 49.205410 17.104598
333 1 19.776000 49.984000 15.000000
334 1 21.424000 51.477410 15.000000
335 2 21.424000 52.256000 17.104598
336 2 19.776000 53.749410 17.104598
337 1 23.072000 0.000000 15.000000
338 1 24.720000 1.493410 15.000000
339 2 24.720000 2.272000 17.104598
340 2 23.072000 3.765410 17.104598
341 1 23.072000 4.544000 15.000000
342 1 24.720000 6.037410 15.000000
343 2 24.720000 6.816000 17.104598
344 2 23.072000 8.309410 17.104598
345 1 23.072000 9.088000 15.000000
346 1 24.720000 10.581410 15.000000
347 2 24.720000 11.360000 17.104598
348 2 23.072000 12.853410 17.104598
349 1 23.072000 13.632000 15.000000
350 1 24.720000 15.125410 15.000000
351 2 24.720000 15.904000 17.104598
352 2 23.072000 17.397410 17.104598
353 1 23.072000 18.176000 15.000000
354 1 24.720000 19.669410 15.000000
355 2 24.720000 20.448000 17.104598
356 2 23.072000 21.941410 17.104598
357 1 23.072000 22.720000 15.000000
358 1 24.720000 24.213410 15.000000
359 2 24.720000 24.992000 17.104598
360 2 23.072000 26.485410 17.104598
361 1 23.072000 27.264000 15.000000
362 1 24.720000 28.757410 15.000000
363 2 24.720000 29.536000 17.104598
364 2 23.072000 31.029410 17.104598
365 1 23.072000 31.808000 15.000000
366 1 24.720000 33.301410 15.000000
367 2 24.720000 34.080000 17.104598
368 2 23.072000 35.573410 17.104598
369 1 23.072000 36.352000 15.000000
370 1 24.720000 37.845410 15.000000
371 2 24.720000 38.624000 17.104598
372 2 23.072000 40.117410 17.104598
373 1 23.072000 40.896000 15.000000
374 1 24.720000 42.389410 15.000000
375 2 24.720000 43.168000 17.104598
376 2 23.072000 44.661410 17.104598
377 1 23.072000 45.440000 15.000000
378 1 24.720000 46.933410 15.000000
379 2 24.720000 47.712000 17.104598
380 2 23.072000 49.205410 17.104598
381 1 23.072000 49.984000 15.000000
382 1 24.720000 51.477410 15.000000
383 2 24.720000 52.256000 17.104598
384 2 23.072000 53.749410 17.104598
385 1 26.368000 0.000000 15.000000
386 1 28.016000 1.493410 15.000000
387 2 28.016000 2.272000 17.104598
388 2 26.368000 3.765410 17.104598
389 1 26.368000 4.544000 15.000000
390 1 28.016000 6.037410 15.000000
391 2 28.016000 6.816000 17.104598
392 2 26.368000 8.309410 17.104598
393 1 26.368000 9.088000 15.000000
394 1 28.016000 10.581410 15.000000
395 2 28.016000 11.360000 17.104598
396 2 26.368000 12.853410 17.104598
397 1 26.368000 13.632000 15.000000
398 1 28.016000 15.125410 15.000000
399 2 28.016000 15.904000 17.104598
400 2 26.368000 17.397410 17.104598
401 1 26.368000 18.176000 15.000000
402 1 28.016000 19.669410 15.000000
403 2 28.016000 20.448000 17.104598
404 2 26.368000 21.941410 17.104598
405 1 26.368000 22.720000 15.000000
406 1 28.016000 24.213410 15.000000
407 2 28.016000 24.992000 17.104598
408 2 26.368000 26.485410 17.104598
409 1 26.368000 27.264000 15.000000
410 1 28.016000 28.757410 15.000000
411 2 28.016000 29.536000 17.104598
412 2 26.368000 31.029410 17.104598
413 1 26.368000 31.808000 15.000000
414 1 28.016000 33.301410 15.000000
415 2 28.016000 34.080000 17.104598
416 2 26.368000 35.573410 17.104598
417 1 26.368000 36.352000 15.000000
418 1 28.016000 37.845410 15.000000
419 2 28.016000 38.624000 17.104598
420 2 26.368000 40.117410 17.104598
421 1 26.368000 40.896000 15.000000
422 1 28.016000 42.389410 15.000000
423 2 28.016000 43.168000 17.104598
424 2 26.368000 44.661410 17.104598
425 1 26.368000 45.440000 15.000000
426 1 28.016000 46.933410 15.000000
427 2 28.016000 47.712000 17.104598
428 2 26.368000 49.205410 17.104598
429 1 26.368000 49.984000 15.000000
430 1 28.016000 51.477410 15.000000
431 2 28.016000 52.256000 17.104598
432 2 26.368000 53.749410 17.104598
433 1 29.664000 0.000000 15.000000
434 1 31.312000 1.493410 15.000000
435 2 31.312000 2.272000 17.104598
436 2 29.664000 3.765410 17.104598
437 1 29.664000 4.544000 15.000000
438 1 31.312000 6.037410 15.000000
439 2 31.312000 6.816000 17.104598
440 2 29.664000 8.309410 17.104598
441 1 29.664000 9.088000 15.000000
442 1 31.312000 10.581410 15.000000
443 2 31.312000 11.360000 17.104598
444 2 29.664000 12.853410 17.104598
445 1 29.664000 13.632000 15.000000
446 1 31.312000 15.125410 15.000000
447 2 31.312000 15.904000 17.104598
448 2 29.664000 17.397410 17.104598
449 1 29.664000 18.176000 15.000000
450 1 31.312000 19.669410 15.000000
451 2 31.312000 20.448000 17.104598
452 2 29.664000 21.941410 17.104598
453 1 29.664000 22.720000 15.000000
454 1 31.312000 24.213410 15.000000
455 2 31.312000 24.992000 17.104598
456 2 29.664000 26.485410 17.104598
457 1 29.664000 27.264000 15.000000
458 1 31.312000 28.757410 15.000000
459 2 31.312000 29.536000 17.104598
460 2 29.664000 31.029410 17.104598
461 1 29.664000 31.808000 15.000000
462 1 31.312000 33.301410 15.000000
463 2 31.312000 34.080000 17.104598
464 2 29.664000 35.573410 17.104598
465 1 29.664000 36.352000 15.000000
466 1 31.312000 37.845410 15.000000
467 2 31.312000 38.624000 17.104598
468 2 29.664000 40.117410 17.104598
469 1 29.664000 40.896000 15.000000
470 1 31.312000 42.389410 15.000000
471 2 31.312000 43.168000 17.104598
472 2 29.664000 44.661410 17.104598
473 1 29.664000 45.440000 15.000000
474 1 31.312000 46.933410 15.000000
475 2 31.312000 47.712000 17.104598
476 2 29.664000 49.205410 17.104598
477 1 29.664000 49.984000 15.000000
478 1 31.312000 51.477410 15.000000
479 2 31.312000 52.256000 17.104598
480 2 29.664000 53.749410 17.104598
481 1 32.960000 0.000000 15.000000
482 1 34.608000 1.493410 15.000000
483 2 34.608000 2.272000 17.104598
484 2 32.960000 3.765410 17.104598
485 1 32.960000 4.544000 15.000000
486 1 34.608000 6.037410 15.000000
487 2 34.608000 6.816000 17.104598
488 2 32.960000 8.309410 17.104598
489 1 32.960000 9.088000 15.000000
490 1 34.608000 10.581410 15.000000
491 2 34.608000 11.360000 17.104598
492 2 32.960000 12.853410 17.104598
493 1 32.960000 13.632000 15.000000
494 1 34.608000 15.125410 15.000000
495 2 34.608000 15.904000 17.104598
496 2 32.960000 17.397410 17.104598
497 1 32.960000 18.176000 15.000000
498 1 34.608000 19.669410 15.000000
499 2 34.608000 20.448000 17.104598
500 2 32.960000 21.941410 17.104598
501 1 32.960000 22.720000 15.000000
502 1 34.608000 24.213410 15.000000
503 2 34.608000 24.992000 17.104598
504 2 32.960000 26.485410 17.104598
505 1 32.960000 27.264000 15.000000
506 1 34.608000 28.757410 15.000000
507 2 34.608000 29.536000 17.104598
508 2 32.960000 31.029410 17.104598
509 1 32.960000 31.808000 15.000000
510 1 34.608000 33.301410 15.000000
511 2 34.608000 34.080000 17.104598
512 2 32.960000 35.573410 17.104598
513 1 32.960000 36.352000 15.000000
514 1 34.608000 37.845410 15.000000
515 2 34.608000 38.624000 17.104598
516 2 32.960000 40.117410 17.104598
517 1 32.960000 40.896000 15.000000
518 1 34.608000 42.389410 15.000000
519 2 34.608000 43.168000 17.104598
520 2 32.960000 44.661410 17.104598
521 1 32.960000 45.440000 15.000000
522 1 34.608000 46.933410 15.000000
523 2 34.608000 47.712000 17.104598
524 2 32.960000 49.205410 17.104598
525 1 32.960000 49.984000 15.000000
526 1 34.608000 51.477410 15.000000
527 2 34.608000 52.256000 17.104598
528 2 32.960000 53.749410 17.104598
529 1 36.256000 0.000000 15.000000
530 1 37.904000 1.493410 15.000000
531 2 37.904000 2.272000 17.104598
532 2 36.256000 3.765410 17.104598
533 1 36.256000 4.544000 15.000000
534 1 37.904000 6.037410 15.000000
535 2 37.904000 6.816000 17.104598
536 2 36.256000 8.309410 17.104598
537 1 36.256000 9.088000 15.000000
538 1 37.904000 10.581410 15.000000
539 2 37.904000 11.360000 17.104598
540 2 36.256000 12.853410 17.104598
541 1 36.256000 13.632000 15.000000
542 1 37.904000 15.125410 15.000000
543 2 37.904000 15.904000 17.104598
544 2 36.256000 17.397410 17.104598
545 1 36.256000 18.176000 15.000000
546 1 37.904000 19.669410 15.000000
547 2 37.904000 20.448000 17.104598
548 2 36.256000 21.941410 17.104598
549 1 36.256000 22.720000 15.000000
550 1 37.904000 24.213410 15.000000
551 2 37.904000 24.992000 17.104598
552 2 36.256000 26.485410 17.104598
553 1 36.256000 27.264000 15.000000
554 1 37.904000 28.757410 15.000000
555 2 37.904000 29.536000 17.104598
556 2 36.256000 31.029410 17.104598
557 1 36.256000 31.808000 15.000000
558 1 37.904000 33.301410 15.000000
559 2 37.904000 34.080000 17.104598
560 2 36.256000 35.573410 17.104598
561 1 36.256000 36.352000 15.000000
562 1 37.904000 37.845410 15.000000
563 2 37.904000 38.624000 17.104598
564 2 36.256000 40.117410 17.104598
565 1 36.256000 40.896000 15.000000
566 1 37.904000 42.389410 15.000000
567 2 37.904000 43.168000 17.104598
568 2 36.256000 44.661410 17.104598
569 1 36.256000 45.440000 15.000000
570 1 37.904000 46.933410 15.000000
571 2 37.904000 47.712000 17.104598
572 2 36.256000 49.205410 17.104598
573 1 36.256000 49.984000 15.000000
574 1 37.904000 51.477410 15.000000
575 2 37.904000 52.256000 17.104598
576 2 36.256000 53.749410 17.104598
577 1 39.552000 0.000000 15.000000
578 1 41.200000 1.493410 15.000000
579 2 41.200000 2.272000 17.104598
580 2 39.552000 3.765410 17.104598
581 1 39.552000 4.544000 15.000000
582 1 41.200000 6.037410 15.000000
583 2 41.200000 6.816000 17.104598
584 2 39.552000 8.309410 17.104598
585 1 39.552000 9.088000 15.000000
586 1 41.200000 10.581410 15.000000
587 2 41.200000 11.360000 17.104598
588 2 39.552000 12.853410 17.104598
589 1 39.552000 13.632000 15.000000
590 1 41.200000 15.125410 15.000000
591 2 41.200000 15.904000 17.104598
592 2 39.552000 17.397410 17.104598
593 1 39.552000 18.176000 15.000000
594 1 41.200000 19.669410 15.000000
595 2 41.200000 20.448000 17.104598
596 2 39.552000 21.941410 17.104598
597 1 39.552000 22.720000 15.000000
598 1 41.200000 24.213410 15.000000
599 2 41.200000 24.992000 17.104598
600 2 39.552000 26.485410 17.104598
601 1 39.552000 27.264000 15.000000
602 1 41.200000 28.757410 15.000000
603 2 41.200000 29.536000 17.104598
604 2 39.552000 31.029410 17.104598
605 1 39.552000 31.808000 15.000000
606 1 41.200000 33.301410 15.000000
607 2 41.200000 34.080000 17.104598
608 2 39.552000 35.573410 17.104598
609 1 39.552000 36.352000 15.000000
610 1 41.200000 37.845410 15.000000
611 2 41.200000 38.624000 17.104598
612 2 39.552000 40.117410 17.104598
613 1 39.552000 40.896000 15.000000
614 1 41.200000 42.389410 15.000000
615 2 41.200000 43.168000 17.104598
616 2 39.552000 44.661410 17.104598
617 1 39.552000 45.440000 15.000000
618 1 41.200000 46.933410 15.000000
619 2 41.200000 47.712000 17.104598
620 2 39.552000 49.205410 17.104598
621 1 39.552000 49.984000 15.000000
622 1 41.200000 51.477410 15.000000
623 2 41.200000 52.256000 17.104598
624 2 39.552000 53.749410 17.104598
625 1 42.848000 0.000000 15.000000
626 1 44.496000 1.493410 15.000000
627 2 44.496000 2.272000 17.104598
628 2 42.848000 3.765410 17.104598
629 1 42.848000 4.544000 15.000000
630 1 44.496000 6.037410 15.000000
631 2 44.496000 6.816000 17.104598
632 2 42.848000 8.309410 17.104598
633 1 42.848000 9.088000 15.000000
634 1 44.496000 10.581410 15.000000
635 2 44.496000 11.360000 17.104598
636 2 42.848000 12.853410 17.104598
637 1 42.848000 13.632000 15.000000
638 1 44.496000 15.125410 15.000000
639 2 44.496000 15.904000 17.104598
640 2 42.848000 17.397410 17.104598
641 1 42.848000 18.176000 15.000000
642 1 44.496000 19.669410 15.000000
643 2 44.496000 20.448000 17.104598
644 2 42.848000 21.941410 17.104598
645 1 42.848000 22.720000 15.000000
646 1 44.496000 24.213410 15.000000
647 2 44.496000 24.992000 17.104598
648 2 42.848000 26.485410 17.104598
649 1 42.848000 27.264000 15.000000
650 1 44.496000 28.757410 15.000000
651 2 44.496000 29.536000 17.104598
652 2 42.848000 31.029410 17.104598
653 1 42.848000 31.808000 15.000000
654 1 44.496000 33.301410 15.000000
655 2 44.496000 34.080000 17.104598
656 2 42.848000 35.573410 17.104598
657 1 42.848000 36.352000 15.000000
658 1 44.496000 37.845410 15.000000
659 2 44.496000 38.624000 17.104598
660 2 42.848000 40.117410 17.104598
661 1 42.848000 40.896000 15.000000
662 1 44.496000 42.389410 15.000000
663 2 44.496000 43.168000 17.104598
664 2 42.848000 44.661410 17.104598
665 1 42.848000 45.440000 15.000000
666 1 44.496000 46.933410 15.000000
667 2 44.496000 47.712000 17.104598
668 2 42.848000 49.205410 17.104598
669 1 42.848000 49.984000 15.000000
670 1 44.496000 51.477410 15.000000
671 2 44.496000 52.256000 17.104598
672 2 42.848000 53.749410 17.104598
673 1 46.144000 0.000000 15.000000
674 1 47.792000 1.493410 15.000000
675 2 47.792000 2.272000 17.104598
676 2 46.144000 3.765410 17.104598
677 1 46.144000 4.544000 15.000000
678 1 47.792000 6.037410 15.000000
679 2 47.792000 6.816000 17.104598
680 2 46.144000 8.309410 17.104598
681 1 46.144000 9.088000 15.000000
682 1 47.792000 10.581410 15.000000
683 2 47.792000 11.360000 17.104598
684 2 46.144000 12.853410 17.104598
685 1 46.144000 13.632000 15.000000
686 1 47.792000 15.125410 15.000000
687 2 47.792000 15.904000 17.104598
688 2 46.144000 17.397410 17.104598
689 1 46.144000 18.176000 15.000000
690 1 47.792000 19.669410 15.000000
691 2 47.792000 20.448000 17.104598
692 2 46.144000 21.941410 17.104598
693 1 46.144000 22.720000 15.000000
694 1 47.792000 24.213410 15.000000
695 2 47.792000 24.992000 17.104598
696 2 46.144000 26.485410 17.104598
697 1 46.144000 27.264000 15.000000
698 1 47.792000 28.757410 15.000000
699 2 47.792000 29.536000 17.104598
700 2 46.144000 31.029410 17.104598
701 1 46.144000 31.808000 15.000000
702 1 47.792000 33.301410 15.000000
703 2 47.792000 34.080000 17.104598
704 2 46.144000 35.573410 17.104598
705 1 46.144000 36.352000 15.000000
706 1 47.792000 37.845410 15.000000
707 2 47.792000 38.624000 17.104598
708 2 46.144000 40.117410 17.104598
709 1 46.144000 40.896000 15.000000
710 1 47.792000 42.389410 15.000000
711 2 47.792000 43.168000 17.104598
712 2 46.144000 44.661410 17.104598
713 1 46.144000 45.440000 15.000000
714 1 47.792000 46.933410 15.000000
715 2 47.792000 47.712000 17.104598
716 2 46.144000 49.205410 17.104598
717 1 46.144000 49.984000 15.000000
718 1 47.792000 51.477410 15.000000
719 2 47.792000 52.256000 17.104598
720 2 46.144000 53.749410 17.104598
721 1 49.440000 0.000000 15.000000
722 1 51.088000 1.493410 15.000000
723 2 51.088000 2.272000 17.104598
724 2 49.440000 3.765410 17.104598
725 1 49.440000 4.544000 15.000000
726 1 51.088000 6.037410 15.000000
727 2 51.088000 6.816000 17.104598
728 2 49.440000 8.309410 17.104598
729 1 49.440000 9.088000 15.000000
730 1 51.088000 10.581410 15.000000
731 2 51.088000 11.360000 17.104598
732 2 49.440000 12.853410 17.104598
733 1 49.440000 13.632000 15.000000
734 1 51.088000 15.125410 15.000000
735 2 51.088000 15.904000 17.104598
736 2 49.440000 17.397410 17.104598
737 1 49.440000 18.176000 15.000000
738 1 51.088000 19.669410 15.000000
739 2 51.088000 20.448000 17.104598
740 2 49.440000 21.941410 17.104598
741 1 49.440000 22.720000 15.000000
742 1 51.088000 24.213410 15.000000
743 2 51.088000 24.992000 17.104598
744 2 49.440000 26.485410 17.104598
745 1 49.440000 27.264000 15.000000
746 1 51.088000 28.757410 15.000000
747 2 51.088000 29.536000 17.104598
748 2 49.440000 31.029410 17.104598
749 1 49.440000 31.808000 15.000000
750 1 51.088000 33.301410 15.000000
751 2 51.088000 34.080000 17.104598
752 2 49.440000 35.573410 17.104598
753 1 49.440000 36.352000 15.000000
754 1 51.088000 37.845410 15.000000
755 2 51.088000 38.624000 17.104598
756 2 49.440000 40.117410 17.104598
757 1 49.440000 40.896000 15.000000
758 1 51.088000 42.389410 15.000000
759 2 51.088000 43.168000 17.104598
760 2 49.440000 44.661410 17.104598
761 1 49.440000 45.440000 15.000000
762 1 51.088000 46.933410 15.000000
763 2 51.088000 47.712000 17.104598
764 2 49.440000 49.205410 17.104598
765 1 49.440000 49.984000 15.000000
766 1 51.088000 51.477410 15.000000
767 2 51.088000 52.256000 17.104598
768 2 49.440000 53.749410 17.104598
769 1 52.736000 0.000000 15.000000
770 1 54.384000 1.493410 15.000000
771 2 54.384000 2.272000 17.104598
772 2 52.736000 3.765410 17.104598
773 1 52.736000 4.544000 15.000000
774 1 54.384000 6.037410 15.000000
775 2 54.384000 6.816000 17.104598
776 2 52.736000 8.309410 17.104598
777 1 52.736000 9.088000 15.000000
778 1 54.384000 10.581410 15.000000
779 2 54.384000 11.360000 17.104598
780 2 52.736000 12.853410 17.104598
781 1 52.736000 13.632000 15.000000
782 1 54.384000 15.125410 15.000000
783 2 54.384000 15.904000 17.104598
784 2 52.736000 17.397410 17.104598
785 1 52.736000 18.176000 15.000000
786 1 54.384000 19.669410 15.000000
787 2 54.384000 20.448000 17.104598
788 2 52.736000 21.941410 17.104598
789 1 52.736000 22.720000 15.000000
790 1 54.384000 24.213410 15.000000
791 2 54.384000 24.992000 17.104598
792 2 52.736000 26.485410 17.104598
793 1 52.736000 27.264000 15.000000
794 1 54.384000 28.757410 15.000000
795 2 54.384000 29.536000 17.104598
796 2 52.736000 31.029410 17.104598
797 1 52.736000 31.808000 15.000000
798 1 54.384000 33.301410 15.000000
799 2 54.384000 34.080000 17.104598
800 2 52.736000 35.573410 17.104598
801 1 52.736000 36.352000 15.000000
802 1 54.384000 37.845410 15.000000
803 2 54.384000 38.624000 17.104598
804 2 52.736000 40.117410 17.104598
805 1 52.736000 40.896000 15.000000
806 1 54.384000 42.389410 15.000000
807 2 54.384000 43.168000 17.104598
808 2 52.736000 44.661410 17.104598
809 1 52.736000 45.440000 15.000000
810 1 54.384000 46.933410 15.000000
811 2 54.384000 47.712000 17.104598
812 2 52.736000 49.205410 17.104598
813 1 52.736000 49.984000 15.000000
814 1 54.384000 51.477410 15.000000
815 2 54.384000 52.256000 17.104598
816 2 52.736000 53.749410 17.104598
817 1 56.032000 0.000000 15.000000
818 1 57.680000 1.493410 15.000000
819 2 57.680000 2.272000 17.104598
820 2 56.032000 3.765410 17.104598
821 1 56.032000 4.544000 15.000000
822 1 57.680000 6.037410 15.000000
823 2 57.680000 6.816000 17.104598
824 2 56.032000 8.309410 17.104598
825 1 56.032000 9.088000 15.000000
826 1 57.680000 10.581410 15.000000
827 2 57.680000 11.360000 17.104598
828 2 56.032000 12.853410 17.104598
829 1 56.032000 13.632000 15.000000
830 1 57.680000 15.125410 15.000000
831 2 57.680000 15.904000 17.104598
832 2 56.032000 17.397410 17.104598
833 1 56.032000 18.176000 15.000000
834 1 57.680000 19.669410 15.000000
835 2 57.680000 20.448000 17.104598
836 2 56.032000 21.941410 17.104598
837 1 56.032000 22.720000 15.000000
838 1 57.680000 24.213410 15.000000
839 2 57.680000 24.992000 17.104598
840 2 56.032000 26.485410 17.104598
841 1 56.032000 27.264000 15.000000
842 1 57.680000 28.757410 15.000000
843 2 57.680000 29.536000 17.104598
844 2 56.032000 31.029410 17.104598
845 1 56.032000 31.808000 15.000000
846 1 57.680000 33.301410 15.000000
847 2 57.680000 34.080000 17.104598
848 2 56.032000 35.573410 17.104598
849 1 56.032000 36.352000 15.000000
850 1 57.680000 37.845410 15.000000
851 2 57.680000 38.624000 17.104598
852 2 56.032000 40.117410 17.104598
853 1 56.032000 40.896000 15.000000
854 1 57.680000 42.389410 15.000000
855 2 57.680000 43.168000 17.104598
856 2 56.032000 44.661410 17.104598
857 1 56.032000 45.440000 15.000000
858 1 57.680000 46.933410 15.000000
859 2 57.680000 47.712000 17.104598
860 2 56.032000 49.205410 17.104598
861 1 56.032000 49.984000 15.000000
862 1 57.680000 51.477410 15.000000
863 2 57.680000 52.256000 17.104598
864 2 56.032000 53.749410 17.104598
865 1 59.328000 0.000000 15.000000
866 1 60.976000 1.493410 15.000000
867 2 60.976000 2.272000 17.104598
868 2 59.328000 3.765410 17.104598
869 1 59.328000 4.544000 15.000000
870 1 60.976000 6.037410 15.000000
871 2 60.976000 6.816000 17.104598
872 2 59.328000 8.309410 17.104598
873 1 59.328000 9.088000 15.000000
874 1 60.976000 10.581410 15.000000
875 2 60.976000 11.360000 17.104598
876 2 59.328000 12.853410 17.104598
877 1 59.328000 13.632000 15.000000
878 1 60.976000 15.125410 15.000000
879 2 60.976000 15.904000 17.104598
880 2 59.328000 17.397410 17.104598
881 1 59.328000 18.176000 15.000000
882 1 60.976000 19.669410 15.000000
883 2 60.976000 20.448000 17.104598
884 2 59.328000 21.941410 17.104598
885 1 59.328000 22.720000 15.000000
886 1 60.976000 24.213410 15.000000
887 2 60.976000 24.992000 17.104598
888 2 59.328000 26.485410 17.104598
889 1 59.328000 27.264000 15.000000
890 1 60.976000 28.757410 15.000000
891 2 60.976000 29.536000 17.104598
892 2 59.328000 31.029410 17.104598
893 1 59.328000 31.808000 15.000000
894 1 60.976000 33.301410 15.000000
895 2 60.976000 34.080000 17.104598
896 2 59.328000 35.573410 17.104598
897 1 59.328000 36.352000 15.000000
898 1 60.976000 37.845410 15.000000
899 2 60.976000 38.624000 17.104598
900 2 59.328000 40.117410 17.104598
901 1 59.328000 40.896000 15.000000
902 1 60.976000 42.389410 15.000000
903 2 60.976000 43.168000 17.104598
904 2 59.328000 44.661410 17.104598
905 1 59.328000 45.440000 15.000000
906 1 60.976000 46.933410 15.000000
907 2 60.976000 47.712000 17.104598
908 2 59.328000 49.205410 17.104598
909 1 59.328000 49.984000 15.000000
910 1 60.976000 51.477410 15.000000
911 2 60.976000 52.256000 17.104598
912 2 59.328000 53.749410 17.104598
913 1 62.624000 0.000000 15.000000
914 1 64.272000 1.493410 15.000000
915 2 64.272000 2.272000 17.104598
916 2 62.624000 3.765410 17.104598
917 1 62.624000 4.544000 15.000000
918 1 64.272000 6.037410 15.000000
919 2 64.272000 6.816000 17.104598
920 2 62.624000 8.309410 17.104598
921 1 62.624000 9.088000 15.000000
922 1 64.272000 10.581410 15.000000
923 2 64.272000 11.360000 17.104598
924 2 62.624000 12.853410 17.104598
925 1 62.624000 13.632000 15.000000
926 1 64.272000 15.125410 15.000000
927 2 64.272000 15.904000 17.104598
928 2 62.624000 17.397410 17.104598
929 1 62.624000 18.176000 15.000000
930 1 64.272000 19.669410 15.000000
931 2 64.272000 20.448000 17.104598
932 2 62.624000 21.941410 17.104598
933 1 62.624000 22.720000 15.000000
934 1 64.272000 24.213410 15.000000
935 2 64.272000 24.992000 17.104598
936 2 62.624000 26.485410 17.104598
937 1 62.624000 27.264000 15.000000
938 1 64.272000 28.757410 15.000000
939 2 64.272000 29.536000 17.104598
940 2 62.624000 31.029410 17.104598
941 1 62.624000 31.808000 15.000000
942 1 64.272000 33.301410 15.000000
943 2 64.272000 34.080000 17.104598
944 2 62.624000 35.573410 17.104598
945 1 62.624000 36.352000 15.000000
946 1 64.272000 37.845410 15.000000
947 2 64.272000 38.624000 17.104598
948 2 62.624000 40.117410 17.104598
949 1 62.624000 40.896000 15.000000
950 1 64.272000 42.389410 15.000000
951 2 64.272000 43.168000 17.104598
952 2 62.624000 44.661410 17.104598
953 1 62.624000 45.440000 15.000000
954 1 64.272000 46.933410 15.000000
955 2 64.272000 47.712000 17.104598
956 2 62.624000 49.205410 17.104598
957 1 62.624000 49.984000 15.000000
958 1 64.272000 51.477410 15.000000
959 2 64.272000 52.256000 17.104598
960 2 62.624000 53.749410 17.104598
961 1 65.920000 0.000000 15.000000
962 1 67.568000 1.493410 15.000000
963 2 67.568000 2.272000 17.104598
964 2 65.920000 3.765410 17.104598
965 1 65.920000 4.544000 15.000000
966 1 67.568000 6.037410 15.000000
967 2 67.568000 6.816000 17.104598
968 2 65.920000 8.309410 17.104598
969 1 65.920000 9.088000 15.000000
970 1 67.568000 10.581410 15.000000
971 2 67.568000 11.360000 17.104598
972 2 65.920000 12.853410 17.104598
973 1 65.920000 13.632000 15.000000
974 1 67.568000 15.125410 15.000000
975 2 67.568000 15.904000 17.104598
976 2 65.920000 17.397410 17.104598
977 1 65.920000 18.176000 15.000000
978 1 67.568000 19.669410 15.000000
979 2 67.568000 20.448000 17.104598
980 2 65.920000 21.941410 17.104598
981 1 65.920000 22.720000 15.000000
982 1 67.568000 24.213410 15.000000
983 2 67.568000 24.992000 17.104598
984 2 65.920000 26.485410 17.104598
985 1 65.920000 27.264000 15.000000
986 1 67.568000 28.757410 15.000000
987 2 67.568000 29.536000 17.104598
988 2 65.920000 31.029410 17.104598
989 1 65.920000 31.808000 15.000000
990 1 67.568000 33.301410 15.000000
991 2 67.568000 34.080000 17.104598
992 2 65.920000 35.573410 17.104598
993 1 65.920000 36.352000 15.000000
994 1 67.568000 37.845410 15.000000
995 2 67.568000 38.624000 17.104598
996 2 65.920000 40.117410 17.104598
997 1 65.920000 40.896000 15.000000
998 1 67.568000 42.389410 15.000000
999 2 67.568000 43.168000 17.104598
1000 2 65.920000 44.661410 17.104598
1001 1 65.920000 45.440000 15.000000
1002 1 67.568000 46.933410 15.000000
1003 2 67.568000 47.712000 17.104598
1004 2 65.920000 49.205410 17.104598
1005 1 65.920000 49.984000 15.000000
1006 1 67.568000 51.477410 15.000000
1007 2 67.568000 52.256000 17.104598
1008 2 65.920000 53.749410 17.104598
1009 1 69.216000 0.000000 15.000000
1010 1 70.864000 1.493410 15.000000
1011 2 70.864000 2.272000 17.104598
1012 2 69.216000 3.765410 17.104598
1013 1 69.216000 4.544000 15.000000
1014 1 70.864000 6.037410 15.000000
1015 2 70.864000 6.816000 17.104598
1016 2 69.216000 8.309410 17.104598
1017 1 69.216000 9.088000 15.000000
1018 1 70.864000 10.581410 15.000000
1019 2 70.864000 11.360000 17.104598
1020 2 69.216000 12.853410 17.104598
1021 1 69.216000 13.632000 15.000000
1022 1 70.864000 15.125410 15.000000
1023 2 70.864000 15.904000 17.104598
1024 2 69.216000 17.397410 17.104598
1025 1 69.216000 18.176000 15.000000
1026 1 70.864000 19.669410 15.000000
1027 2 70.864000 20.448000 17.104598
1028 2 69.216000 21.941410 17.104598
1029 1 69.216000 22.720000 15.000000
1030 1 70.864000 24.213410 15.000000
1031 2 70.864000 24.992000 17.104598
1032 2 69.216000 26.485410 17.104598
1033 1 69.216000 27.264000 15.000000
1034 1 70.864000 28.757410 15.000000
1035 2 70.864000 29.536000 17.104598
1036 2 69.216000 31.029410 17.104598
1037 1 69.216000 31.808000 15.000000
1038 1 70.864000 33.301410 15.000000
1039 2 70.864000 34.080000 17.104598
1040 2 69.216000 35.573410 17.104598
1041 1 69.216000 36.352000 15.000000
1042 1 70.864000 37.845410 15.000000
1043 2 70.864000 38.624000 17.104598
1044 2 69.216000 40.117410 17.104598
1045 1 69.216000 40.896000 15.000000
1046 1 70.864000 42.389410 15.000000
1047 2 70.864000 43.168000 17.104598
1048 2 69.216000 44.661410 17.104598
1049 1 69.216000 45.440000 15.000000
1050 1 70.864000 46.933410 15.000000
1051 2 70.864000 47.712000 17.104598
1052 2 69.216000 49.205410 17.104598
1053 1 69.216000 49.984000 15.000000
1054 1 70.864000 51.477410 15.000000
1055 2 70.864000 52.256000 17.104598
1056 2 69.216000 53.749410 17.104598
1057 1 72.512000 0.000000 15.000000
1058 1 74.160000 1.493410 15.000000
1059 2 74.160000 2.272000 17.104598
1060 2 72.512000 3.765410 17.104598
1061 1 72.512000 4.544000 15.000000
1062 1 74.160000 6.037410 15.000000
1063 2 74.160000 6.816000 17.104598
1064 2 72.512000 8.309410 17.104598
1065 1 72.512000 9.088000 15.000000
1066 1 74.160000 10.581410 15.000000
1067 2 74.160000 11.360000 17.104598
1068 2 72.512000 12.853410 17.104598
1069 1 72.512000 13.632000 15.000000
1070 1 74.160000 15.125410 15.000000
1071 2 74.160000 15.904000 17.104598
1072 2 72.512000 17.397410 17.104598
1073 1 72.512000 18.176000 15.000000
1074 1 74.160000 19.669410 15.000000
1075 2 74.160000 20.448000 17.104598
1076 2 72.512000 21.941410 17.104598
1077 1 72.512000 22.720000 15.000000
1078 1 74.160000 24.213410 15.000000
1079 2 74.160000 24.992000 17.104598
1080 2 72.512000 26.485410 17.104598
1081 1 72.512000 27.264000 15.000000
1082 1 74.160000 28.757410 15.000000
1083 2 74.160000 29.536000 17.104598
1084 2 72.512000 31.029410 17.104598
1085 1 72.512000 31.808000 15.000000
1086 1 74.160000 33.301410 15.000000
1087 2 74.160000 34.080000 17.104598
1088 2 72.512000 35.573410 17.104598
1089 1 72.512000 36.352000 15.000000
1090 1 74.160000 37.845410 15.000000
1091 2 74.160000 38.624000 17.104598
1092 2 72.512000 40.117410 17.104598
1093 1 72.512000 40.896000 15.000000
1094 1 74.160000 42.389410 15.000000
1095 2 74.160000 43.168000 17.104598
1096 2 72.512000 44.661410 17.104598
1097 1 72.512000 45.440000 15.000000
1098 1 74.160000 46.933410 15.000000
1099 2 74.160000 47.712000 17.104598
1100 2 72.512000 49.205410 17.104598
1101 1 72.512000 49.984000 15.000000
1102 1 74.160000 51.477410 15.000000
1103 2 74.160000 52.256000 17.104598
1104 2 72.512000 53.749410 17.104598
1105 1 75.808000 0.000000 15.000000
1106 1 77.456000 1.493410 15.000000
1107 2 77.456000 2.272000 17.104598
1108 2 75.808000 3.765410 17.104598
1109 1 75.808000 4.544000 15.000000
1110 1 77.456000 6.037410 15.000000
1111 2 77.456000 6.816000 17.104598
1112 2 75.808000 8.309410 17.104598
1113 1 75.808000 9.088000 15.000000
1114 1 77.456000 10.581410 15.000000
1115 2 77.456000 11.360000 17.104598
1116 2 75.808000 12.853410 17.104598
1117 1 75.808000 13.632000 15.000000
1118 1 77.456000 15.125410 15.000000
1119 2 77.456000 15.904000 17.104598
1120 2 75.808000 17.397410 17.104598
1121 1 75.808000 18.176000 15.000000
1122 1 77.456000 19.669410 15.000000
1123 2 77.456000 20.448000 17.104598
1124 2 75.808000 21.941410 17.104598
1125 1 75.808000 22.720000 15.000000
1126 1 77.456000 24.213410 15.000000
1127 2 77.456000 24.992000 17.104598
1128 2 75.808000 26.485410 17.104598
1129 1 75.808000 27.264000 15.000000
1130 1 77.456000 28.757410 15.000000
1131 2 77.456000 29.536000 17.104598
1132 2 75.808000 31.029410 17.104598
1133 1 75.808000 31.808000 15.000000
1134 1 77.456000 33.301410 15.000000
1135 2 77.456000 34.080000 17.104598
1136 2 75.808000 35.573410 17.104598
1137 1 75.808000 36.352000 15.000000
1138 1 77.456000 37.845410 15.000000
1139 2 77.456000 38.624000 17.104598
1140 2 75.808000 40.117410 17.104598
1141 1 75.808000 40.896000 15.000000
1142 1 77.456000 42.389410 15.000000
1143 2 77.456000 43.168000 17.104598
1144 2 75.808000 44.661410 17.104598
1145 1 75.808000 45.440000 15.000000
1146 1 77.456000 46.933410 15.000000
1147 2 77.456000 47.712000 17.104598
1148 2 75.808000 49.205410 17.104598
1149 1 75.808000 49.984000 15.000000
1150 1 77.456000 51.477410 15.000000
1151 2 77.456000 52.256000 17.104598
1152 2 75.808000 53.749410 17.104598
1153 1 79.104000 0.000000 15.000000
1154 1 80.752000 1.493410 15.000000
1155 2 80.752000 2.272000 17.104598
1156 2 79.104000 3.765410 17.104598
1157 1 79.104000 4.544000 15.000000
1158 1 80.752000 6.037410 15.000000
1159 2 80.752000 6.816000 17.104598
1160 2 79.104000 8.309410 17.104598
1161 1 79.104000 9.088000 15.000000
1162 1 80.752000 10.581410 15.000000
1163 2 80.752000 11.360000 17.104598
1164 2 79.104000 12.853410 17.104598
1165 1 79.104000 13.632000 15.000000
1166 1 80.752000 15.125410 15.000000
1167 2 80.752000 15.904000 17.104598
1168 2 79.104000 17.397410 17.104598
1169 1 79.104000 18.176000 15.000000
1170 1 80.752000 19.669410 15.000000
1171 2 80.752000 20.448000 17.104598
1172 2 79.104000 21.941410 17.104598
1173 1 79.104000 22.720000 15.000000
1174 1 80.752000 24.213410 15.000000
1175 2 80.752000 24.992000 17.104598
1176 2 79.104000 26.485410 17.104598
1177 1 79.104000 27.264000 15.000000
1178 1 80.752000 28.757410 15.000000
1179 2 80.752000 29.536000 17.104598
1180 2 79.104000 31.029410 17.104598
1181 1 79.104000 31.808000 15.000000
1182 1 80.752000 33.301410 15.000000
1183 2 80.752000 34.080000 17.104598
1184 2 79.104000 35.573410 17.104598
1185 1 79.104000 36.352000 15.000000
1186 1 80.752000 37.845410 15.000000
1187 2 80.752000 38.624000 17.104598
1188 2 79.104000 40.117410 17.104598
1189 1 79.104000 40.896000 15.000000
1190 1 80.752000 42.389410 15.000000
1191 2 80.752000 43.168000 17.104598
1192 2 79.104000 44.661410 17.104598
1193 1 79.104000 45.440000 15.000000
1194 1 80.752000 46.933410 15.000000
1195 2 80.752000 47.712000 17.104598
1196 2 79.104000 49.205410 17.104598
1197 1 79.104000 49.984000 15.000000
1198 1 80.752000 51.477410 15.000000
1199 2 80.752000 52.256000 17.104598
1200 2 79.104000 53.749410 17.104598
1201 1 82.400000 0.000000 15.000000
1202 1 84.048000 1.493410 15.000000
1203 2 84.048000 2.272000 17.104598
1204 2 82.400000 3.765410 17.104598
1205 1 82.400000 4.544000 15.000000
1206 1 84.048000 6.037410 15.000000
1207 2 84.048000 6.816000 17.104598
1208 2 82.400000 8.309410 17.104598
1209 1 82.400000 9.088000 15.000000
1210 1 84.048000 10.581410 15.000000
1211 2 84.048000 11.360000 17.104598
1212 2 82.400000 12.853410 17.104598
1213 1 82.400000 13.632000 15.000000
1214 1 84.048000 15.125410 15.000000
1215 2 84.048000 15.904000 17.104598
1216 2 82.400000 17.397410 17.104598
1217 1 82.400000 18.176000 15.000000
1218 1 84.048000 19.669410 15.000000
1219 2 84.048000 20.448000 17.104598
1220 2 82.400000 21.941410 17.104598
1221 1 82.400000 22.720000 15.000000
1222 1 84.048000 24.213410 15.000000
1223 2 84.048000 24.992000 17.104598
1224 2 82.400000 26.485410 17.104598
1225 1 82.400000 27.264000 15.000000
1226 1 84.048000 28.757410 15.000000
1227 2 84.048000 29.536000 17.104598
1228 2 82.400000 31.029410 17.104598
1229 1 82.400000 31.808000 15.000000
1230 1 84.048000 33.301410 15.000000
1231 2 84.048000 34.080000 17.104598
1232 2 82.400000 35.573410 17.104598
1233 1 82.400000 36.352000 15.000000
1234 1 84.048000 37.845410 15.000000
1235 2 84.048000 38.624000 17.104598
1236 2 82.400000 40.117410 17.104598
1237 1 82.400000 40.896000 15.000000
1238 1 84.048000 42.389410 15.000000
1239 2 84.048000 43.168000 17.104598
1240 2 82.400000 44.661410 17.104598
1241 1 82.400000 45.440000 15.000000
1242 1 84.048000 46.933410 15.000000
1243 2 84.048000 47.712000 17.104598
1244 2 82.400000 49.205410 17.104598
1245 1 82.400000 49.984000 15.000000
1246 1 84.048000 51.477410 15.000000
1247 2 84.048000 52.256000 17.104598
1248 2 82.400000 53.749410 17.104598
1249 1 85.696000 0.000000 15.000000
1250 1 87.344000 1.493410 15.000000
1251 2 87.344000 2.272000 17.104598
1252 2 85.696000 3.765410 17.104598
1253 1 85.696000 4.544000 15.000000
1254 1 87.344000 6.037410 15.000000
1255 2 87.344000 6.816000 17.104598
1256 2 85.696000 8.309410 17.104598
1257 1 85.696000 9.088000 15.000000
1258 1 87.344000 10.581410 15.000000
1259 2 87.344000 11.360000 17.104598
1260 2 85.696000 12.853410 17.104598
1261 1 85.696000 13.632000 15.000000
1262 1 87.344000 15.125410 15.000000
1263 2 87.344000 15.904000 17.104598
1264 2 85.696000 17.397410 17.104598
1265 1 85.696000 18.176000 15.000000
1266 1 87.344000 19.669410 15.000000
1267 2 87.344000 20.448000 17.104598
1268 2 85.696000 21.941410 17.104598
1269 1 85.696000 22.720000 15.000000
1270 1 87.344000 24.213410 15.000000
1271 2 87.344000 24.992000 17.104598
1272 2 85.696000 26.485410 17.104598
1273 1 85.696000 27.264000 15.000000
1274 1 87.344000 28.757410 15.000000
1275 2 87.344000 29.536000 17.104598
1276 2 85.696000 31.029410 17.104598
1277 1 85.696000 31.808000 15.000000
1278 1 87.344000 33.301410 15.000000
1279 2 87.344000 34.080000 17.104598
1280 2 85.696000 35.573410 17.104598
1281 1 85.696000 36.352000 15.000000
1282 1 87.344000 37.845410 15.000000
1283 2 87.344000 38.624000 17.104598
1284 2 85.696000 40.117410 17.104598
1285 1 85.696000 40.896000 15.000000
1286 1 87.344000 42.389410 15.000000
1287 2 87.344000 43.168000 17.104598
1288 2 85.696000 44.661410 17.104598
1289 1 85.696000 45.440000 15.000000
1290 1 87.344000 46.933410 15.000000
1291 2 87.344000 47.712000 17.104598
1292 2 85.696000 49.205410 17.104598
1293 1 85.696000 49.984000 15.000000
1294 1 87.344000 51.477410 15.000000
1295 2 87.344000 52.256000 17.104598
1296 2 85.696000 53.749410 17.104598
1297 1 88.992000 0.000000 15.000000
1298 1 90.640000 1.493410 15.000000
1299 2 90.640000 2.272000 17.104598
1300 2 88.992000 3.765410 17.104598
1301 1 88.992000 4.544000 15.000000
1302 1 90.640000 6.037410 15.000000
1303 2 90.640000 6.816000 17.104598
1304 2 88.992000 8.309410 17.104598
1305 1 88.992000 9.088000 15.000000
1306 1 90.640000 10.581410 15.000000
1307 2 90.640000 11.360000 17.104598
1308 2 88.992000 12.853410 17.104598
1309 1 88.992000 13.632000 15.000000
1310 1 90.640000 15.125410 15.000000
1311 2 90.640000 15.904000 17.104598
1312 2 88.992000 17.397410 17.104598
1313 1 88.992000 18.176000 15.000000
1314 1 90.640000 19.669410 15.000000
1315 2 90.640000 20.448000 17.104598
1316 2 88.992000 21.941410 17.104598
1317 1 88.992000 22.720000 15.000000
1318 1 90.640000 24.213410 15.000000
1319 2 90.640000 24.992000 17.104598
1320 2 88.992000 26.485410 17.104598
1321 1 88.992000 27.264000 15.000000
1322 1 90.640000 28.757410 15.000000
1323 2 90.640000 29.536000 17.104598
1324 2 88.992000 31.029410 17.104598
1325 1 88.992000 31.808000 15.000000
1326 1 90.640000 33.301410 15.000000
1327 2 90.640000 34.080000 17.104598
1328 2 88.992000 35.573410 17.104598
1329 1 88.992000 36.352000 15.000000
1330 1 90.640000 37.845410 15.000000
1331 2 90.640000 38.624000 17.104598
1332 2 88.992000 40.117410 17.104598
1333 1 88.992000 40.896000 15.000000
1334 1 90.640000 42.389410 15.000000
1335 2 90.640000 43.168000 17.104598
1336 2 88.992000 44.661410 17.104598
1337 1 88.992000 45.440000 15.000000
1338 1 90.640000 46.933410 15.000000
1339 2 90.640000 47.712000 17.104598
1340 2 88.992000 49.205410 17.104598
1341 1 88.992000 49.984000 15.000000
1342 1 90.640000 51.477410 15.000000
1343 2 90.640000 52.256000 17.104598
1344 2 88.992000 53.749410 17.104598
1345 1 92.288000 0.000000 15.000000
1346 1 93.936000 1.493410 15.000000
1347 2 93.936000 2.272000 17.104598
1348 2 92.288000 3.765410 17.104598
1349 1 92.288000 4.544000 15.000000
1350 1 93.936000 6.037410 15.000000
1351 2 93.936000 6.816000 17.104598
1352 2 92.288000 8.309410 17.104598
1353 1 92.288000 9.088000 15.000000
1354 1 93.936000 10.581410 15.000000
1355 2 93.936000 11.360000 17.104598
1356 2 92.288000 12.853410 17.104598
1357 1 92.288000 13.632000 15.000000
1358 1 93.936000 15.125410 15.000000
1359 2 93.936000 15.904000 17.104598
1360 2 92.288000 17.397410 17.104598
1361 1 92.288000 18.176000 15.000000
1362 1 93.936000 19.669410 15.000000
1363 2 93.936000 20.448000 17.104598
1364 2 92.288000 21.941410 17.104598
1365 1 92.288000 22.720000 15.000000
1366 1 93.936000 24.213410 15.000000
1367 2 93.936000 24.992000 17.104598
1368 2 92.288000 26.485410 17.104598
1369 1 92.288000 27.264000 15.000000
1370 1 93.936000 28.757410 15.000000
1371 2 93.936000 29.536000 17.104598
1372 2 92.288000 31.029410 17.104598
1373 1 92.288000 31.808000 15.000000
1374 1 93.936000 33.301410 15.000000
1375 2 93.936000 34.080000 17.104598
1376 2 92.288000 35.573410 17.104598
1377 1 92.288000 36.352000 15.000000
1378 1 93.936000 37.845410 15.000000
1379 2 93.936000 38.624000 17.104598
1380 2 92.288000 40.117410 17.104598
1381 1 92.288000 40.896000 15.000000
1382 1 93.936000 42.389410 15.000000
1383 2 93.936000 43.168000 17.104598
1384 2 92.288000 44.661410 17.104598
1385 1 92.288000 45.440000 15.000000
1386 1 93.936000 46.933410 15.000000
1387 2 93.936000 47.712000 17.104598
1388 2 92.288000 49.205410 17.104598
1389 1 92.288000 49.984000 15.000000
1390 1 93.936000 51.477410 15.000000
1391 2 93.936000 52.256000 17.104598
1392 2 92.288000 53.749410 17.104598
1393 1 95.584000 0.000000 15.000000
1394 1 97.232000 1.493410 15.000000
1395 2 97.232000 2.272000 17.104598
1396 2 95.584000 3.765410 17.104598
1397 1 95.584000 4.544000 15.000000
1398 1 97.232000 6.037410 15.000000
1399 2 97.232000 6.816000 17.104598
1400 2 95.584000 8.309410 17.104598
1401 1 95.584000 9.088000 15.000000
1402 1 97.232000 10.581410 15.000000
1403 2 97.232000 11.360000 17.104598
1404 2 95.584000 12.853410 17.104598
1405 1 95.584000 13.632000 15.000000
1406 1 97.232000 15.125410 15.000000
1407 2 97.232000 15.904000 17.104598
1408 2 95.584000 17.397410 17.104598
1409 1 95.584000 18.176000 15.000000
1410 1 97.232000 19.669410 15.000000
1411 2 97.232000 20.448000 17.104598
1412 2 95.584000 21.941410 17.104598
1413 1 95.584000 22.720000 15.000000
1414 1 97.232000 24.213410 15.000000
1415 2 97.232000 24.992000 17.104598
1416 2 95.584000 26.485410 17.104598
1417 1 95.584000 27.264000 15.000000
1418 1 97.232000 28.757410 15.000000
1419 2 97.232000 29.536000 17.104598
1420 2 95.584000 31.029410 17.104598
1421 1 95.584000 31.808000 15.000000
1422 1 97.232000 33.301410 15.000000
1423 2 97.232000 34.080000 17.104598
1424 2 95.584000 35.573410 17.104598
1425 1 95.584000 36.352000 15.000000
1426 1 97.232000 37.845410 15.000000
1427 2 97.232000 38.624000 17.104598
1428 2 95.584000 40.117410 17.104598
1429 1 95.584000 40.896000 15.000000
1430 1 97.232000 42.389410 15.000000
1431 2 97.232000 43.168000 17.104598
1432 2 95.584000 44.661410 17.104598
1433 1 95.584000 45.440000 15.000000
1434 1 97.232000 46.933410 15.000000
1435 2 97.232000 47.712000 17.104598
1436 2 95.584000 49.205410 17.104598
1437 1 95.584000 49.984000 15.000000
1438 1 97.232000 51.477410 15.000000
1439 2 97.232000 52.256000 17.104598
1440 2 95.584000 53.749410 17.104598
1441 1 98.880000 0.000000 15.000000
1442 1 100.528000 1.493410 15.000000
1443 2 100.528000 2.272000 17.104598
1444 2 98.880000 3.765410 17.104598
1445 1 98.880000 4.544000 15.000000
1446 1 100.528000 6.037410 15.000000
1447 2 100.528000 6.816000 17.104598
1448 2 98.880000 8.309410 17.104598
1449 1 98.880000 9.088000 15.000000
1450 1 100.528000 10.581410 15.000000
1451 2 100.528000 11.360000 17.104598
1452 2 98.880000 12.853410 17.104598
1453 1 98.880000 13.632000 15.000000
1454 1 100.528000 15.125410 15.000000
1455 2 100.528000 15.904000 17.104598
1456 2 98.880000 17.397410 17.104598
1457 1 98.880000 18.176000 15.000000
1458 1 100.528000 19.669410 15.000000
1459 2 100.528000 20.448000 17.104598
1460 2 98.880000 21.941410 17.104598
1461 1 98.880000 22.720000 15.000000
1462 1 100.528000 24.213410 15.000000
1463 2 100.528000 24.992000 17.104598
1464 2 98.880000 26.485410 17.104598
1465 1 98.880000 27.264000 15.000000
1466 1 100.528000 28.757410 15.000000
1467 2 100.528000 29.536000 17.104598
1468 2 98.880000 31.029410 17.104598
1469 1 98.880000 31.808000 15.000000
1470 1 100.528000 33.301410 15.000000
1471 2 100.528000 34.080000 17.104598
1472 2 98.880000 35.573410 17.104598
1473 1 98.880000 36.352000 15.000000
1474 1 100.528000 37.845410 15.000000
1475 2 100.528000 38.624000 17.104598
1476 2 98.880000 40.117410 17.104598
1477 1 98.880000 40.896000 15.000000
1478 1 100.528000 42.389410 15.000000
1479 2 100.528000 43.168000 17.104598
1480 2 98.880000 44.661410 17.104598
1481 1 98.880000 45.440000 15.000000
1482 1 100.528000 46.933410 15.000000
1483 2 100.528000 47.712000 17.104598
1484 2 98.880000 49.205410 17.104598
1485 1 98.880000 49.984000 15.000000
1486 1 100.528000 51.477410 15.000000
1487 2 100.528000 52.256000 17.104598
1488 2 98.880000 53.749410 17.104598
1489 1 102.176000 0.000000 15.000000
1490 1 103.824000 1.493410 15.000000
1491 2 103.824000 2.272000 17.104598
1492 2 102.176000 3.765410 17.104598
1493 1 102.176000 4.544000 15.000000
1494 1 103.824000 6.037410 15.000000
1495 2 103.824000 6.816000 17.104598
1496 2 102.176000 8.309410 17.104598
1497 1 102.176000 9.088000 15.000000
1498 1 103.824000 10.581410 15.000000
1499 2 103.824000 11.360000 17.104598
1500 2 102.176000 12.853410 17.104598
1501 1 102.176000 13.632000 15.000000
1502 1 103.824000 15.125410 15.000000
1503 2 103.824000 15.904000 17.104598
1504 2 102.176000 17.397410 17.104598
1505 1 102.176000 18.176000 15.000000
1506 1 103.824000 19.669410 15.000000
1507 2 103.824000 20.448000 17.104598
1508 2 102.176000 21.941410 17.104598
1509 1 102.176000 22.720000 15.000000
1510 1 103.824000 24.213410 15.000000
1511 2 103.824000 24.992000 17.104598
1512 2 102.176000 26.485410 17.104598
1513 1 102.176000 27.264000 15.000000
1514 1 103.824000 28.757410 15.000000
1515 2 103.824000 29.536000 17.104598
1516 2 102.176000 31.029410 17.104598
1517 1 102.176000 31.808000 15.000000
1518 1 103.824000 33.301410 15.000000
1519 2 103.824000 34.080000 17.104598
1520 2 102.176000 35.573410 17.104598
1521 1 102.176000 36.352000 15.000000
1522 1 103.824000 37.845410 15.000000
1523 2 103.824000 38.624000 17.104598
1524 2 102.176000 40.117410 17.104598
1525 1 102.176000 40.896000 15.000000
1526 1 103.824000 42.389410 15.000000
1527 2 103.824000 43.168000 17.104598
1528 2 102.176000 44.661410 17.104598
1529 1 102.176000 45.440000 15.000000
1530 1 103.824000 46.933410 15.000000
1531 2 103.824000 47.712000 17.104598
1532 2 102.176000 49.205410 17.104598
1533 1 102.176000 49.984000 15.000000
1534 1 103.824000 51.477410 15.000000
1535 2 103.824000 52.256000 17.104598
1536 2 102.176000 53.749410 17.104598
1537 1 105.472000 0.000000 15.000000
1538 1 107.120000 1.493410 15.000000
1539 2 107.120000 2.272000 17.104598
1540 2 105.472000 3.765410 17.104598
1541 1 105.472000 4.544000 15.000000
1542 1 107.120000 6.037410 15.000000
1543 2 107.120000 6.816000 17.104598
1544 2 105.472000 8.309410 17.104598
1545 1 105.472000 9.088000 15.000000
1546 1 107.120000 10.581410 15.000000
1547 2 107.120000 11.360000 17.104598
1548 2 105.472000 12.853410 17.104598
1549 1 105.472000 13.632000 15.000000
1550 1 107.120000 15.125410 15.000000
1551 2 107.120000 15.904000 17.104598
1552 2 105.472000 17.397410 17.104598
1553 1 105.472000 18.176000 15.000000
1554 1 107.120000 19.669410 15.000000
1555 2 107.120000 20.448000 17.104598
1556 2 105.472000 21.941410 17.104598
1557 1 105.472000 22.720000 15.000000
1558 1 107.120000 24.213410 15.000000
1559 2 107.120000 24.992000 17.104598
1560 2 105.472000 26.485410 17.104598
1561 1 105.472000 27.264000 15.000000
1562 1 107.120000 28.757410 15.000000
1563 2 107.120000 29.536000 17.104598
1564 2 105.472000 31.029410 17.104598
1565 1 105.472000 31.808000 15.000000
1566 1 107.120000 33.301410 15.000000
1567 2 107.120000 34.080000 17.104598
1568 2 105.472000 35.573410 17.104598
1569 1 105.472000 36.352000 15.000000
1570 1 107.120000 37.845410 15.000000
1571 2 107.120000 38.624000 17.104598
1572 2 105.472000 40.117410 17.104598
1573 1 105.472000 40.896000 15.000000
1574 1 107.120000 42.389410 15.000000
1575 2 107.120000 43.168000 17.104598
1576 2 105.472000 44.661410 17.104598
1577 1 105.472000 45.440000 15.000000
1578 1 107.120000 46.933410 15.000000
1579 2 107.120000 47.712000 17.104598
1580 2 105.472000 49.205410 17.104598
1581 1 105.472000 49.984000 15.000000
1582 1 107.120000 51.477410 15.000000
1583 2 107.120000 52.256000 17.104598
1584 2 105.472000 53.749410 17.104598
1585 1 108.768000 0.000000 15.000000
1586 1 110.416000 1.493410 15.000000
1587 2 110.416000 2.272000 17.104598
1588 2 108.768000 3.765410 17.104598
1589 1 108.768000 4.544000 15.000000
1590 1 110.416000 6.037410 15.000000
1591 2 110.416000 6.816000 17.104598
1592 2 108.768000 8.309410 17.104598
1593 1 108.768000 9.088000 15.000000
1594 1 110.416000 10.581410 15.000000
1595 2 110.416000 11.360000 17.104598
1596 2 108.768000 12.853410 17.104598
1597 1 108.768000 13.632000 15.000000
1598 1 110.416000 15.125410 15.000000
1599 2 110.416000 15.904000 17.104598
1600 2 108.768000 17.397410 17.104598
1601 1 108.768000 18.176000 15.000000
1602 1 110.416000 19.669410 15.000000
1603 2 110.416000 20.448000 17.104598
1604 2 108.768000 21.941410 17.104598
1605 1 108.768000 22.720000 15.000000
1606 1 110.416000 24.213410 15.000000
1607 2 110.416000 24.992000 17.104598
1608 2 108.768000 26.485410 17.104598
1609 1 108.768000 27.264000 15.000000
1610 1 110.416000 28.757410 15.000000
1611 2 110.416000 29.536000 17.104598
1612 2 108.768000 31.029410 17.104598
1613 1 108.768000 31.808000 15.000000
1614 1 110.416000 33.301410 15.000000
1615 2 110.416000 34.080000 17.104598
1616 2 108.768000 35.573410 17.104598
1617 1 108.768000 36.352000 15.000000
1618 1 110.416000 37.845410 15.000000
1619 2 110.416000 38.624000 17.104598
1620 2 108.768000 40.117410 17.104598
1621 1 108.768000 40.896000 15.000000
1622 1 110.416000 42.389410 15.000000
1623 2 110.416000 43.168000 17.104598
1624 2 108.768000 44.661410 17.104598
1625 1 108.768000 45.440000 15.000000
1626 1 110.416000 46.933410 15.000000
1627 2 110.416000 47.712000 17.104598
1628 2 108.768000 49.205410 17.104598
1629 1 108.768000 49.984000 15.000000
1630 1 110.416000 51.477410 15.000000
1631 2 110.416000 52.256000 17.104598
1632 2 108.768000 53.749410 17.104598
1633 1 112.064000 0.000000 15.000000
1634 1 113.712000 1.493410 15.000000
1635 2 113.712000 2.272000 17.104598
1636 2 112.064000 3.765410 17.104598
1637 1 112.064000 4.544000 15.000000
1638 1 113.712000 6.037410 15.000000
1639 2 113.712000 6.816000 17.104598
1640 2 112.064000 8.309410 17.104598
1641 1 112.064000 9.088000 15.000000
1642 1 113.712000 10.581410 15.000000
1643 2 113.712000 11.360000 17.104598
1644 2 112.064000 12.853410 17.104598
1645 1 112.064000 13.632000 15.000000
1646 1 113.712000 15.125410 15.000000
1647 2 113.712000 15.904000 17.104598
1648 2 112.064000 17.397410 17.104598
1649 1 112.064000 18.176000 15.000000
1650 1 113.712000 19.669410 15.000000
1651 2 113.712000 20.448000 17.104598
1652 2 112.064000 21.941410 17.104598
1653 1 112.064000 22.720000 15.000000
1654 1 113.712000 24.213410 15.000000
1655 2 113.712000 24.992000 17.104598
1656 2 112.064000 26.485410 17.104598
1657 1 112.064000 27.264000 15.000000
1658 1 113.712000 28.757410 15.000000
1659 2 113.712000 29.536000 17.104598
1660 2 112.064000 31.029410 17.104598
1661 1 112.064000 31.808000 15.000000
1662 1 113.712000 33.301410 15.000000
1663 2 113.712000 34.080000 17.104598
1664 2 112.064000 35.573410 17.104598
1665 1 112.064000 36.352000 15.000000
1666 1 113.712000 37.845410 15.000000
1667 2 113.712000 38.624000 17.104598
1668 2 112.064000 40.117410 17.104598
1669 1 112.064000 40.896000 15.000000
1670 1 113.712000 42.389410 15.000000
1671 2 113.712000 43.168000 17.104598
1672 2 112.064000 44.661410 17.104598
1673 1 112.064000 45.440000 15.000000
1674 1 113.712000 46.933410 15.000000
1675 2 113.712000 47.712000 17.104598
1676 2 112.064000 49.205410 17.104598
1677 1 112.064000 49.984000 15.000000
1678 1 113.712000 51.477410 15.000000
1679 2 113.712000 52.256000 17.104598
1680 2 112.064000 53.749410 17.104598
1681 1 115.360000 0.000000 15.000000
1682 1 117.008000 1.493410 15.000000
1683 2 117.008000 2.272000 17.104598
1684 2 115.360000 3.765410 17.104598
1685 1 115.360000 4.544000 15.000000
1686 1 117.008000 6.037410 15.000000
1687 2 117.008000 6.816000 17.104598
1688 2 115.360000 8.309410 17.104598
1689 1 115.360000 9.088000 15.000000
1690 1 117.008000 10.581410 15.000000
1691 2 117.008000 11.360000 17.104598
1692 2 115.360000 12.853410 17.104598
1693 1 115.360000 13.632000 15.000000
1694 1 117.008000 15.125410 15.000000
1695 2 117.008000 15.904000 17.104598
1696 2 115.360000 17.397410 17.104598
1697 1 115.360000 18.176000 15.000000
1698 1 117.008000 19.669410 15.000000
1699 2 117.008000 20.448000 17.104598
1700 2 115.360000 21.941410 17.104598
1701 1 115.360000 22.720000 15.000000
1702 1 117.008000 24.213410 15.000000
1703 2 117.008000 24.992000 17.104598
1704 2 115.360000 26.485410 17.104598
1705 1 115.360000 27.264000 15.000000
1706 1 117.008000 28.757410 15.000000
1707 2 117.008000 29.536000 17.104598
1708 2 115.360000 31.029410 17.104598
1709 1 115.360000 31.808000 15.000000
1710 1 117.008000 33.301410 15.000000
1711 2 117.008000 34.080000 17.104598
1712 2 115.360000 35.573410 17.104598
1713 1 115.360000 36.352000 15.000000
1714 1 117.008000 37.845410 15.000000
1715 2 117.008000 38.624000 17.104598
1716 2 115.360000 40.117410 17.104598
1717 1 115.360000 40.896000 15.000000
1718 1 117.008000 42.389410 15.000000
1719 2 117.008000 43.168000 17.104598
1720 2 115.360000 44.661410 17.104598
1721 1 115.360000 45.440000 15.000000
1722 1 117.008000 46.933410 15.000000
1723 2 117.008000 47.712000 17.104598
1724 2 115.360000 49.205410 17.104598
1725 1 115.360000 49.984000 15.000000
1726 1 117.008000 51.477410 15.000000
1727 2 117.008000 52.256000 17.104598
1728 2 115.360000 53.749410 17.104598
1729 1 118.656000 0.000000 15.000000
1730 1 120.304000 1.493410 15.000000
1731 2 120.304000 2.272000 17.104598
1732 2 118.656000 3.765410 17.104598
1733 1 118.656000 4.544000 15.000000
1734 1 120.304000 6.037410 15.000000
1735 2 120.304000 6.816000 17.104598
1736 2 118.656000 8.309410 17.104598
1737 1 118.656000 9.088000 15.000000
1738 1 120.304000 10.581410 15.000000
1739 2 120.304000 11.360000 17.104598
1740 2 118.656000 12.853410 17.104598
1741 1 118.656000 13.632000 15.000000
1742 1 120.304000 15.125410 15.000000
1743 2 120.304000 15.904000 17.104598
1744 2 118.656000 17.397410 17.104598
1745 1 118.656000 18.176000 15.000000
1746 1 120.304000 19.669410 15.000000
1747 2 120.304000 20.448000 17.104598
1748 2 118.656000 21.941410 17.104598
1749 1 118.656000 22.720000 15.000000
1750 1 120.304000 24.213410 15.000000
1751 2 120.304000 24.992000 17.104598
1752 2 118.656000 26.485410 17.104598
1753 1 118.656000 27.264000 15.000000
1754 1 120.304000 28.757410 15.000000
1755 2 120.304000 29.536000 17.104598
1756 2 118.656000 31.029410 17.104598
1757 1 118.656000 31.808000 15.000000
1758 1 120.304000 33.301410 15.000000
1759 2 120.304000 34.080000 17.104598
1760 2 118.656000 35.573410 17.104598
1761 1 118.656000 36.352000 15.000000
1762 1 120.304000 37.845410 15.000000
1763 2 120.304000 38.624000 17.104598
1764 2 118.656000 40.117410 17.104598
1765 1 118.656000 40.896000 15.000000
1766 1 120.304000 42.389410 15.000000
1767 2 120.304000 43.168000 17.104598
1768 2 118.656000 44.661410 17.104598
1769 1 118.656000 45.440000 15.000000
1770 1 120.304000 46.933410 15.000000
1771 2 120.304000 47.712000 17.104598
1772 2 118.656000 49.205410 17.104598
1773 1 118.656000 49.984000 15.000000
1774 1 120.304000 51.477410 15.000000
1775 2 120.304000 52.256000 17.104598
1776 2 118.656000 53.749410 17.104598
1777 1 121.952000 0.000000 15.000000
1778 1 123.600000 1.493410 15.000000
1779 2 123.600000 2.272000 17.104598
1780 2 121.952000 3.765410 17.104598
1781 1 121.952000 4.544000 15.000000
1782 1 123.600000 6.037410 15.000000
1783 2 123.600000 6.816000 17.104598
1784 2 121.952000 8.309410 17.104598
1785 1 121.952000 9.088000 15.000000
1786 1 123.600000 10.581410 15.000000
1787 2 123.600000 11.360000 17.104598
1788 2 121.952000 12.853410 17.104598
1789 1 121.952000 13.632000 15.000000
1790 1 123.600000 15.125410 15.000000
1791 2 123.600000 15.904000 17.104598
1792 2 121.952000 17.397410 17.104598
1793 1 121.952000 18.176000 15.000000
1794 1 123.600000 19.669410 15.000000
1795 2 123.600000 20.448000 17.104598
1796 2 121.952000 21.941410 17.104598
1797 1 121.952000 22.720000 15.000000
1798 1 123.600000 24.213410 15.000000
1799 2 123.600000 24.992000 17.104598
1800 2 121.952000 26.485410 17.104598
1801 1 121.952000 27.264000 15.000000
1802 1 123.600000 28.757410 15.000000
1803 2 123.600000 29.536000 17.104598
1804 2 121.952000 31.029410 17.104598
1805 1 121.952000 31.808000 15.000000
1806 1 123.600000 33.301410 15.000000
1807 2 123.600000 34.080000 17.104598
1808 2 121.952000 35.573410 17.104598
1809 1 121.952000 36.352000 15.000000
1810 1 123.600000 37.845410 15.000000
1811 2 123.600000 38.624000 17.104598
1812 2 121.952000 40.117410 17.104598
1813 1 121.952000 40.896000 15.000000
1814 1 123.600000 42.389410 15.000000
1815 2 123.600000 43.168000 17.104598
1816 2 121.952000 44.661410 17.104598
1817 1 121.952000 45.440000 15.000000
1818 1 123.600000 46.933410 15.000000
1819 2 123.600000 47.712000 17.104598
1820 2 121.952000 49.205410 17.104598
1821 1 121.952000 49.984000 15.000000
1822 1 123.600000 51.477410 15.000000
1823 2 123.600000 52.256000 17.104598
1824 2 121.952000 53.749410 17.104598
1825 1 125.248000 0.000000 15.000000
1826 1 126.896000 1.493410 15.000000
1827 2 126.896000 2.272000 17.104598
1828 2 125.248000 3.765410 17.104598
1829 1 125.248000 4.544000 15.000000
1830 1 126.896000 6.037410 15.000000
1831 2 126.896000 6.816000 17.104598
1832 2 125.248000 8.309410 17.104598
1833 1 125.248000 9.088000 15.000000
1834 1 126.896000 10.581410 15.000000
1835 2 126.896000 11.360000 17.104598
1836 2 125.248000 12.853410 17.104598
1837 1 125.248000 13.632000 15.000000
1838 1 126.896000 15.125410 15.000000
1839 2 126.896000 15.904000 17.104598
1840 2 125.248000 17.397410 17.104598
1841 1 125.248000 18.176000 15.000000
1842 1 126.896000 19.669410 15.000000
1843 2 126.896000 20.448000 17.104598
1844 2 125.248000 21.941410 17.104598
1845 1 125.248000 22.720000 15.000000
1846 1 126.896000 24.213410 15.000000
1847 2 126.896000 24.992000 17.104598
1848 2 125.248000 26.485410 17.104598
1849 1 125.248000 27.264000 15.000000
1850 1 126.896000 28.757410 15.000000
1851 2 126.896000 29.536000 17.104598
1852 2 125.248000 31.029410 17.104598
1853 1 125.248000 31.808000 15.000000
1854 1 126.896000 33.301410 15.000000
1855 2 126.896000 34.080000 17.104598
1856 2 125.248000 35.573410 17.104598
1857 1 125.248000 36.352000 15.000000
1858 1 126.896000 37.845410 15.000000
1859 2 126.896000 38.624000 17.104598
1860 2 125.248000 40.117410 17.104598
1861 1 125.248000 40.896000 15.000000
1862 1 126.896000 42.389410 15.000000
1863 2 126.896000 43.168000 17.104598
1864 2 125.248000 44.661410 17.104598
1865 1 125.248000 45.440000 15.000000
1866 1 126.896000 46.933410 15.000000
1867 2 126.896000 47.712000 17.104598
1868 2 125.248000 49.205410 17.104598
1869 1 125.248000 49.984000 15.000000
1870 1 126.896000 51.477410 15.000000
1871 2 126.896000 52.256000 17.104598
1872 2 125.248000 53.749410 17.104598
1873 1 128.544000 0.000000 15.000000
1874 1 130.192000 1.493410 15.000000
1875 2 130.192000 2.272000 17.104598
1876 2 128.544000 3.765410 17.104598
1877 1 128.544000 4.544000 15.000000
1878 1 130.192000 6.037410 15.000000
1879 2 130.192000 6.816000 17.104598
1880 2 128.544000 8.309410 17.104598
1881 1 128.544000 9.088000 15.000000
1882 1 130.192000 10.581410 15.000000
1883 2 130.192000 11.360000 17.104598
1884 2 128.544000 12.853410 17.104598
1885 1 128.544000 13.632000 15.000000
1886 1 130.192000 15.125410 15.000000
1887 2 130.192000 15.904000 17.104598
1888 2 128.544000 17.397410 17.104598
1889 1 128.544000 18.176000 15.000000
1890 1 130.192000 19.669410 15.000000
1891 2 130.192000 20.448000 17.104598
1892 2 128.544000 21.941410 17.104598
1893 1 128.544000 22.720000 15.000000
1894 1 130.192000 24.213410 15.000000
1895 2 130.192000 24.992000 17.104598
1896 2 128.544000 26.485410 17.104598
1897 1 128.544000 27.264000 15.000000
1898 1 130.192000 28.757410 15.000000
1899 2 130.192000 29.536000 17.104598
1900 2 128.544000 31.029410 17.104598
1901 1 128.544000 31.808000 15.000000
1902 1 130.192000 33.301410 15.000000
1903 2 130.192000 34.080000 17.104598
1904 2 128.544000 35.573410 17.104598
1905 1 128.544000 36.352000 15.000000
1906 1 130.192000 37.845410 15.000000
1907 2 130.192000 38.624000 17.104598
1908 2 128.544000 40.117410 17.104598
1909 1 128.544000 40.896000 15.000000
1910 1 130.192000 42.389410 15.000000
1911 2 130.192000 43.168000 17.104598
1912 2 128.544000 44.661410 17.104598
1913 1 128.544000 45.440000 15.000000
1914 1 130.192000 46.933410 15.000000
1915 2 130.192000 47.712000 17.104598
1916 2 128.544000 49.205410 17.104598
1917 1 128.544000 49.984000 15.000000
1918 1 130.192000 51.477410 15.000000
1919 2 130.192000 52.256000 17.104598
1920 2 128.544000 53.749410 17.104598
1921 1 131.840000 0.000000 15.000000
1922 1 133.488000 1.493410 15.000000
1923 2 133.488000 2.272000 17.104598
1924 2 131.840000 3.765410 17.104598
1925 1 131.840000 4.544000 15.000000
1926 1 133.488000 6.037410 15.000000
1927 2 133.488000 6.816000 17.104598
1928 2 131.840000 8.309410 17.104598
1929 1 131.840000 9.088000 15.000000
1930 1 133.488000 10.581410 15.000000
1931 2 133.488000 11.360000 17.104598
1932 2 131.840000 12.853410 17.104598
1933 1 131.840000 13.632000 15.000000
1934 1 133.488000 15.125410 15.000000
1935 2 133.488000 15.904000 17.104598
1936 2 131.840000 17.397410 17.104598
1937 1 131.840000 18.176000 15.000000
1938 1 133.488000 19.669410 15.000000
1939 2 133.488000 20.448000 17.104598
1940 2 131.840000 21.941410 17.104598
1941 1 131.840000 22.720000 15.000000
1942 1 133.488000 24.213410 15.000000
1943 2 133.488000 24.992000 17.104598
1944 2 131.840000 26.485410 17.104598
1945 1 131.840000 27.264000 15.000000
1946 1 133.488000 28.757410 15.000000
1947 2 133.488000 29.536000 17.104598
1948 2 131.840000 31.029410 17.104598
1949 1 131.840000 31.808000 15.000000
1950 1 133.488000 33.301410 15.000000
1951 2 133.488000 34.080000 17.104598
1952 2 131.840000 35.573410 17.104598
1953 1 131.840000 36.352000 15.000000
1954 1 133.488000 37.845410 15.000000
1955 2 133.488000 38.624000 17.104598
1956 2 131.840000 40.117410 17.104598
1957 1 131.840000 40.896000 15.000000
1958 1 133.488000 42.389410 15.000000
1959 2 133.488000 43.168000 17.104598
1960 2 131.840000 44.661410 17.104598
1961 1 131.840000 45.440000 15.000000
1962 1 133.488000 46.933410 15.000000
1963 2 133.488000 47.712000 17.104598
1964 2 131.840000 49.205410 17.104598
1965 1 131.840000 49.984000 15.000000
1966 1 133.488000 51.477410 15.000000
1967 2 133.488000 52.256000 17.104598
1968 2 131.840000 53.749410 17.104598
1969 1 135.136000 0.000000 15.000000
1970 1 136.784000 1.493410 15.000000
1971 2 136.784000 2.272000 17.104598
1972 2 135.136000 3.765410 17.104598
1973 1 135.136000 4.544000 15.000000
1974 1 136.784000 6.037410 15.000000
1975 2 136.784000 6.816000 17.104598
1976 2 135.136000 8.309410 17.104598
1977 1 135.136000 9.088000 15.000000
1978 1 136.784000 10.581410 15.000000
1979 2 136.784000 11.360000 17.104598
1980 2 135.136000 12.853410 17.104598
1981 1 135.136000 13.632000 15.000000
1982 1 136.784000 15.125410 15.000000
1983 2 136.784000 15.904000 17.104598
1984 2 135.136000 17.397410 17.104598
1985 1 135.136000 18.176000 15.000000
1986 1 136.784000 19.669410 15.000000
1987 2 136.784000 20.448000 17.104598
1988 2 135.136000 21.941410 17.104598
1989 1 135.136000 22.720000 15.000000
1990 1 136.784000 24.213410 15.000000
1991 2 136.784000 24.992000 17.104598
1992 2 135.136000 26.485410 17.104598
1993 1 135.136000 27.264000 15.000000
1994 1 136.784000 28.757410 15.000000
1995 2 136.784000 29.536000 17.104598
1996 2 135.136000 31.029410 17.104598
1997 1 135.136000 31.808000 15.000000
1998 1 136.784000 33.301410 15.000000
1999 2 136.784000 34.080000 17.104598
2000 2 135.136000 35.573410 17.104598
2001 1 135.136000 36.352000 15.000000
2002 1 136.784000 37.845410 15.000000
2003 2 136.784000 38.624000 17.104598
2004 2 135.136000 40.117410 17.104598
2005 1 135.136000 40.896000 15.000000
2006 1 136.784000 42.389410 15.000000
2007 2 136.784000 43.168000 17.104598
2008 2 135.136000 44.661410 17.104598
2009 1 135.136000 45.440000 15.000000
2010 1 136.784000 46.933410 15.000000
2011 2 136.784000 47.712000 17.104598
2012 2 135.136000 49.205410 17.104598
2013 1 135.136000 49.984000 15.000000
2014 1 136.784000 51.477410 15.000000
2015 2 136.784000 52.256000 17.104598
2016 2 135.136000 53.749410 17.104598
2017 1 138.432000 0.000000 15.000000
2018 1 140.080000 1.493410 15.000000
2019 2 140.080000 2.272000 17.104598
2020 2 138.432000 3.765410 17.104598
2021 1 138.432000 4.544000 15.000000
2022 1 140.080000 6.037410 15.000000
2023 2 140.080000 6.816000 17.104598
2024 2 138.432000 8.309410 17.104598
2025 1 138.432000 9.088000 15.000000
2026 1 140.080000 10.581410 15.000000
2027 2 140.080000 11.360000 17.104598
2028 2 138.432000 12.853410 17.104598
2029 1 138.432000 13.632000 15.000000
2030 1 140.080000 15.125410 15.000000
2031 2 140.080000 15.904000 17.104598
2032 2 138.432000 17.397410 17.104598
2033 1 138.432000 18.176000 15.000000
2034 1 140.080000 19.669410 15.000000
2035 2 140.080000 20.448000 17.104598
2036 2 138.432000 21.941410 17.104598
2037 1 138.432000 22.720000 15.000000
2038 1 140.080000 24.213410 15.000000
2039 2 140.080000 24.992000 17.104598
2040 2 138.432000 26.485410 17.104598
2041 1 138.432000 27.264000 15.000000
2042 1 140.080000 28.757410 15.000000
2043 2 140.080000 29.536000 17.104598
2044 2 138.432000 31.029410 17.104598
2045 1 138.432000 31.808000 15.000000
2046 1 140.080000 33.301410 15.000000
2047 2 140.080000 34.080000 17.104598
2048 2 138.432000 35.573410 17.104598
2049 1 138.432000 36.352000 15.000000
2050 1 140.080000 37.845410 15.000000
2051 2 140.080000 38.624000 17.104598
2052 2 138.432000 40.117410 17.104598
2053 1 138.432000 40.896000 15.000000
2054 1 140.080000 42.389410 15.000000
2055 2 140.080000 43.168000 17.104598
2056 2 138.432000 44.661410 17.104598
2057 1 138.432000 45.440000 15.000000
2058 1 140.080000 46.933410 15.000000
2059 2 140.080000 47.712000 17.104598
2060 2 138.432000 49.205410 17.104598
2061 1 138.432000 49.984000 15.000000
2062 1 140.080000 51.477410 15.000000
2063 2 140.080000 52.256000 17.104598
2064 2 138.432000 53.749410 17.104598
2065 1 141.728000 0.000000 15.000000
2066 1 143.376000 1.493410 15.000000
2067 2 143.376000 2.272000 17.104598
2068 2 141.728000 3.765410 17.104598
2069 1 141.728000 4.544000 15.000000
2070 1 143.376000 6.037410 15.000000
2071 2 143.376000 6.816000 17.104598
2072 2 141.728000 8.309410 17.104598
2073 1 141.728000 9.088000 15.000000
2074 1 143.376000 10.581410 15.000000
2075 2 143.376000 11.360000 17.104598
2076 2 141.728000 12.853410 17.104598
2077 1 141.728000 13.632000 15.000000
2078 1 143.376000 15.125410 15.000000
2079 2 143.376000 15.904000 17.104598
2080 2 141.728000 17.397410 17.104598
2081 1 141.728000 18.176000 15.000000
2082 1 143.376000 19.669410 15.000000
2083 2 143.376000 20.448000 17.104598
2084 2 141.728000 21.941410 17.104598
2085 1 141.728000 22.720000 15.000000
2086 1 143.376000 24.213410 15.000000
2087 2 143.376000 24.992000 17.104598
2088 2 141.728000 26.485410 17.104598
2089 1 141.728000 27.264000 15.000000
2090 1 143.376000 28.757410 15.000000
2091 2 143.376000 29.536000 17.104598
2092 2 141.728000 31.029410 17.104598
2093 1 141.728000 31.808000 15.000000
2094 1 143.376000 33.301410 15.000000
2095 2 143.376000 34.080000 17.104598
2096 2 141.728000 35.573410 17.104598
2097 1 141.728000 36.352000 15.000000
2098 1 143.376000 37.845410 15.000000
2099 2 143.376000 38.624000 17.104598
2100 2 141.728000 40.117410 17.104598
2101 1 141.728000 40.896000 15.000000
2102 1 143.376000 42.389410 15.000000
2103 2 143.376000 43.168000 17.104598
2104 2 141.728000 44.661410 17.104598
2105 1 141.728000 45.440000 15.000000
2106 1 143.376000 46.933410 15.000000
2107 2 143.376000 47.712000 17.104598
2108 2 141.728000 49.205410 17.104598
2109 1 141.728000 49.984000 15.000000
2110 1 143.376000 51.477410 15.000000
2111 2 143.376000 52.256000 17.104598
2112 2 141.728000 53.749410 17.104598
2113 1 145.024000 0.000000 15.000000
2114 1 146.672000 1.493410 15.000000
2115 2 146.672000 2.272000 17.104598
2116 2 145.024000 3.765410 17.104598
2117 1 145.024000 4.544000 15.000000
2118 1 146.672000 6.037410 15.000000
2119 2 146.672000 6.816000 17.104598
2120 2 145.024000 8.309410 17.104598
2121 1 145.024000 9.088000 15.000000
2122 1 146.672000 10.581410 15.000000
2123 2 146.672000 11.360000 17.104598
2124 2 145.024000 12.853410 17.104598
2125 1 145.024000 13.632000 15.000000
2126 1 146.672000 15.125410 15.000000
2127 2 146.672000 15.904000 17.104598
2128 2 145.024000 17.397410 17.104598
2129 1 145.024000 18.176000 15.000000
2130 1 146.672000 19.669410 15.000000
2131 2 146.672000 20.448000 17.104598
2132 2 145.024000 21.941410 17.104598
2133 1 145.024000 22.720000 15.000000
2134 1 146.672000 24.213410 15.000000
2135 2 146.672000 24.992000 17.104598
2136 2 145.024000 26.485410 17.104598
2137 1 145.024000 27.264000 15.000000
2138 1 146.672000 28.757410 15.000000
2139 2 146.672000 29.536000 17.104598
2140 2 145.024000 31.029410 17.104598
2141 1 145.024000 31.808000 15.000000
2142 1 146.672000 33.301410 15.000000
2143 2 146.672000 34.080000 17.104598
2144 2 145.024000 35.573410 17.104598
2145 1 145.024000 36.352000 15.000000
2146 1 146.672000 37.845410 15.000000
2147 2 146.672000 38.624000 17.104598
2148 2 145.024000 40.117410 17.104598
2149 1 145.024000 40.896000 15.000000
2150 1 146.672000 42.389410 15.000000
2151 2 146.672000 43.168000 17.104598
2152 2 145.024000 44.661410 17.104598
2153 1 145.024000 45.440000 15.000000
2154 1 146.672000 46.933410 15.000000
2155 2 146.672000 47.712000 17.104598
2156 2 145.024000 49.205410 17.104598
2157 1 145.024000 49.984000 15.000000
2158 1 146.672000 51.477410 15.000000
2159 2 146.672000 52.256000 17.104598
2160 2 145.024000 53.749410 17.104598
2161 1 148.320000 0.000000 15.000000
2162 1 149.968000 1.493410 15.000000
2163 2 149.968000 2.272000 17.104598
2164 2 148.320000 3.765410 17.104598
2165 1 148.320000 4.544000 15.000000
2166 1 149.968000 6.037410 15.000000
2167 2 149.968000 6.816000 17.104598
2168 2 148.320000 8.309410 17.104598
2169 1 148.320000 9.088000 15.000000
2170 1 149.968000 10.581410 15.000000
2171 2 149.968000 11.360000 17.104598
2172 2 148.320000 12.853410 17.104598
2173 1 148.320000 13.632000 15.000000
2174 1 149.968000 15.125410 15.000000
2175 2 149.968000 15.904000 17.104598
2176 2 148.320000 17.397410 17.104598
2177 1 148.320000 18.176000 15.000000
2178 1 149.968000 19.669410 15.000000
2179 2 149.968000 20.448000 17.104598
2180 2 148.320000 21.941410 17.104598
2181 1 148.320000 22.720000 15.000000
2182 1 149.968000 24.213410 15.000000
2183 2 149.968000 24.992000 17.104598
2184 2 148.320000 26.485410 17.104598
2185 1 148.320000 27.264000 15.000000
2186 1 149.968000 28.757410 15.000000
2187 2 149.968000 29.536000 17.104598
2188 2 148.320000 31.029410 17.104598
2189 1 148.320000 31.808000 15.000000
2190 1 149.968000 33.301410 15.000000
2191 2 149.968000 34.080000 17.104598
2192 2 148.320000 35.573410 17.104598
2193 1 148.320000 36.352000 15.000000
2194 1 149.968000 37.845410 15.000000
2195 2 149.968000 38.624000 17.104598
2196 2 148.320000 40.117410 17.104598
2197 1 148.320000 40.896000 15.000000
2198 1 149.968000 42.389410 15.000000
2199 2 149.968000 43.168000 17.104598
2200 2 148.320000 44.661410 17.104598
2201 1 148.320000 45.440000 15.000000
2202 1 149.968000 46.933410 15.000000
2203 2 149.968000 47.712000 17.104598
2204 2 148.320000 49.205410 17.104598
2205 1 148.320000 49.984000 15.000000
2206 1 149.968000 51.477410 15.000000
2207 2 149.968000 52.256000 17.104598
2208 2 148.320000 53.749410 17.104598
2209 1 151.616000 0.000000 15.000000
2210 1 153.264000 1.493410 15.000000
2211 2 153.264000 2.272000 17.104598
2212 2 151.616000 3.765410 17.104598
2213 1 151.616000 4.544000 15.000000
2214 1 153.264000 6.037410 15.000000
2215 2 153.264000 6.816000 17.104598
2216 2 151.616000 8.309410 17.104598
2217 1 151.616000 9.088000 15.000000
2218 1 153.264000 10.581410 15.000000
2219 2 153.264000 11.360000 17.104598
2220 2 151.616000 12.853410 17.104598
2221 1 151.616000 13.632000 15.000000
2222 1 153.264000 15.125410 15.000000
2223 2 153.264000 15.904000 17.104598
2224 2 151.616000 17.397410 17.104598
2225 1 151.616000 18.176000 15.000000
2226 1 153.264000 19.669410 15.000000
2227 2 153.264000 20.448000 17.104598
2228 2 151.616000 21.941410 17.104598
2229 1 151.616000 22.720000 15.000000
2230 1 153.264000 24.213410 15.000000
2231 2 153.264000 24.992000 17.104598
2232 2 151.616000 26.485410 17.104598
2233 1 151.616000 27.264000 15.000000
2234 1 153.264000 28.757410 15.000000
2235 2 153.264000 29.536000 17.104598
2236 2 151.616000 31.029410 17.104598
2237 1 151.616000 31.808000 15.000000
2238 1 153.264000 33.301410 15.000000
2239 2 153.264000 34.080000 17.104598
2240 2 151.616000 35.573410 17.104598
2241 1 151.616000 36.352000 15.000000
2242 1 153.264000 37.845410 15.000000
2243 2 153.264000 38.624000 17.104598
2244 2 151.616000 40.117410 17.104598
2245 1 151.616000 40.896000 15.000000
2246 1 153.264000 42.389410 15.000000
2247 2 153.264000 43.168000 17.104598
2248 2 151.616000 44.661410 17.104598
2249 1 151.616000 45.440000 15.000000
2250 1 153.264000 46.933410 15.000000
2251 2 153.264000 47.712000 17.104598
2252 2 151.616000 49.205410 17.104598
2253 1 151.616000 49.984000 15.000000
2254 1 153.264000 51.477410 15.000000
2255 2 153.264000 52.256000 17.104598
2256 2 151.616000 53.749410 17.104598
2257 1 154.912000 0.000000 15.000000
2258 1 156.560000 1.493410 15.000000
2259 2 156.560000 2.272000 17.104598
2260 2 154.912000 3.765410 17.104598
2261 1 154.912000 4.544000 15.000000
2262 1 156.560000 6.037410 15.000000
2263 2 156.560000 6.816000 17.104598
2264 2 154.912000 8.309410 17.104598
2265 1 154.912000 9.088000 15.000000
2266 1 156.560000 10.581410 15.000000
2267 2 156.560000 11.360000 17.104598
2268 2 154.912000 12.853410 17.104598
2269 1 154.912000 13.632000 15.000000
2270 1 156.560000 15.125410 15.000000
2271 2 156.560000 15.904000 17.104598
2272 2 154.912000 17.397410 17.104598
2273 1 154.912000 18.176000 15.000000
2274 1 156.560000 19.669410 15.000000
2275 2 156.560000 20.448000 17.104598
2276 2 154.912000 21.941410 17.104598
2277 1 154.912000 22.720000 15.000000
2278 1 156.560000 24.213410 15.000000
2279 2 156.560000 24.992000 17.104598
2280 2 154.912000 26.485410 17.104598
2281 1 154.912000 27.264000 15.000000
2282 1 156.560000 28.757410 15.000000
2283 2 156.560000 29.536000 17.104598
2284 2 154.912000 31.029410 17.104598
2285 1 154.912000 31.808000 15.000000
2286 1 156.560000 33.301410 15.000000
2287 2 156.560000 34.080000 17.104598
2288 2 154.912000 35.573410 17.104598
2289 1 154.912000 36.352000 15.000000
2290 1 156.560000 37.845410 15.000000
2291 2 156.560000 38.624000 17.104598
2292 2 154.912000 40.117410 17.104598
2293 1 154.912000 40.896000 15.000000
2294 1 156.560000 42.389410 15.000000
2295 2 156.560000 43.168000 17.104598
2296 2 154.912000 44.661410 17.104598
2297 1 154.912000 45.440000 15.000000
2298 1 156.560000 46.933410 15.000000
2299 2 156.560000 47.712000 17.104598
2300 2 154.912000 49.205410 17.104598
2301 1 154.912000 49.984000 15.000000
2302 1 156.560000 51.477410 15.000000
2303 2 156.560000 52.256000 17.104598
2304 2 154.912000 53.749410 17.104598
2305 1 158.208000 0.000000 15.000000
2306 1 159.856000 1.493410 15.000000
2307 2 159.856000 2.272000 17.104598
2308 2 158.208000 3.765410 17.104598
2309 1 158.208000 4.544000 15.000000
2310 1 159.856000 6.037410 15.000000
2311 2 159.856000 6.816000 17.104598
2312 2 158.208000 8.309410 17.104598
2313 1 158.208000 9.088000 15.000000
2314 1 159.856000 10.581410 15.000000
2315 2 159.856000 11.360000 17.104598
2316 2 158.208000 12.853410 17.104598
2317 1 158.208000 13.632000 15.000000
2318 1 159.856000 15.125410 15.000000
2319 2 159.856000 15.904000 17.104598
2320 2 158.208000 17.397410 17.104598
2321 1 158.208000 18.176000 15.000000
2322 1 159.856000 19.669410 15.000000
2323 2 159.856000 20.448000 17.104598
2324 2 158.208000 21.941410 17.104598
2325 1 158.208000 22.720000 15.000000
2326 1 159.856000 24.213410 15.000000
2327 2 159.856000 24.992000 17.104598
2328 2 158.208000 26.485410 17.104598
2329 1 158.208000 27.264000 15.000000
2330 1 159.856000 28.757410 15.000000
2331 2 159.856000 29.536000 17.104598
2332 2 158.208000 31.029410 17.104598
2333 1 158.208000 31.808000 15.000000
2334 1 159.856000 33.301410 15.000000
2335 2 159.856000 34.080000 17.104598
2336 2 158.208000 35.573410 17.104598
2337 1 158.208000 36.352000 15.000000
2338 1 159.856000 37.845410 15.000000
2339 2 159.856000 38.624000 17.104598
2340 2 158.208000 40.117410 17.104598
2341 1 158.208000 40.896000 15.000000
2342 1 159.856000 42.389410 15.000000
2343 2 159.856000 43.168000 17.104598
2344 2 158.208000 44.661410 17.104598
2345 1 158.208000 45.440000 15.000000
2346 1 159.856000 46.933410 15.000000
2347 2 159.856000 47.712000 17.104598
2348 2 158.208000 49.205410 17.104598
2349 1 158.208000 49.984000 15.000000
2350 1 159.856000 51.477410 15.000000
2351 2 159.856000 52.256000 17.104598
2352 2 158.208000 53.749410 17.104598
2353 1 161.504000 0.000000 15.000000
2354 1 163.152000 1.493410 15.000000
2355 2 163.152000 2.272000 17.104598
2356 2 161.504000 3.765410 17.104598
2357 1 161.504000 4.544000 15.000000
2358 1 163.152000 6.037410 15.000000
2359 2 163.152000 6.816000 17.104598
2360 2 161.504000 8.309410 17.104598
2361 1 161.504000 9.088000 15.000000
2362 1 163.152000 10.581410 15.000000
2363 2 163.152000 11.360000 17.104598
2364 2 161.504000 12.853410 17.104598
2365 1 161.504000 13.632000 15.000000
2366 1 163.152000 15.125410 15.000000
2367 2 163.152000 15.904000 17.104598
2368 2 161.504000 17.397410 17.104598
2369 1 161.504000 18.176000 15.000000
2370 1 163.152000 19.669410 15.000000
2371 2 163.152000 20.448000 17.104598
2372 2 161.504000 21.941410 17.104598
2373 1 161.504000 22.720000 15.000000
2374 1 163.152000 24.213410 15.000000
2375 2 163.152000 24.992000 17.104598
2376 2 161.504000 26.485410 17.104598
2377 1 161.504000 27.264000 15.000000
2378 1 163.152000 28.757410 15.000000
2379 2 163.152000 29.536000 17.104598
2380 2 161.504000 31.029410 17.104598
2381 1 161.504000 31.808000 15.000000
2382 1 163.152000 33.301410 15.000000
2383 2 163.152000 34.080000 17.104598
2384 2 161.504000 35.573410 17.104598
2385 1 161.504000 36.352000 15.000000
2386 1 163.152000 37.845410 15.000000
2387 2 163.152000 38.624000 17.104598
2388 2 161.504000 40.117410 17.104598
2389 1 161.504000 40.896000 15.000000
2390 1 163.152000 42.389410 15.000000
2391 2 163.152000 43.168000 17.104598
2392 2 161.504000 44.661410 17.104598
2393 1 161.504000 45.440000 15.000000
2394 1 163.152000 46.933410 15.000000
2395 2 163.152000 47.712000 17.104598
2396 2 161.504000 49.205410 17.104598
2397 1 161.504000 49.984000 15.000000
2398 1 163.152000 51.477410 15.000000
2399 2 163.152000 52.256000 17.104598
2400 2 161.504000 53.749410 17.104598
2401 1 164.800000 0.000000 15.000000
2402 1 166.448000 1.493410 15.000000
2403 2 166.448000 2.272000 17.104598
2404 2 164.800000 3.765410 17.104598
2405 1 164.800000 4.544000 15.000000
2406 1 166.448000 6.037410 15.000000
2407 2 166.448000 6.816000 17.104598
2408 2 164.800000 8.309410 17.104598
2409 1 164.800000 9.088000 15.000000
2410 1 166.448000 10.581410 15.000000
2411 2 166.448000 11.360000 17.104598
2412 2 164.800000 12.853410 17.104598
2413 1 164.800000 13.632000 15.000000
2414 1 166.448000 15.125410 15.000000
2415 2 166.448000 15.904000 17.104598
2416 2 164.800000 17.397410 17.104598
2417 1 164.800000 18.176000 15.000000
2418 1 166.448000 19.669410 15.000000
2419 2 166.448000 20.448000 17.104598
2420 2 164.800000 21.941410 17.104598
2421 1 164.800000 22.720000 15.000000
2422 1 166.448000 24.213410 15.000000
2423 2 166.448000 24.992000 17.104598
2424 2 164.800000 26.485410 17.104598
2425 1 164.800000 27.264000 15.000000
2426 1 166.448000 28.757410 15.000000
2427 2 166.448000 29.536000 17.104598
2428 2 164.800000 31.029410 17.104598
2429 1 164.800000 31.808000 15.000000
2430 1 166.448000 33.301410 15.000000
2431 2 166.448000 34.080000 17.104598
2432 2 164.800000 35.573410 17.104598
2433 1 164.800000 36.352000 15.000000
2434 1 166.448000 37.845410 15.000000
2435 2 166.448000 38.624000 17.104598
2436 2 164.800000 40.117410 17.104598
2437 1 164.800000 40.896000 15.000000
2438 1 166.448000 42.389410 15.000000
2439 2 166.448000 43.168000 17.104598
2440 2 164.800000 44.661410 17.104598
2441 1 164.800000 45.440000 15.000000
2442 1 166.448000 46.933410 15.000000
2443 2 166.448000 47.712000 17.104598
2444 2 164.800000 49.205410 17.104598
2445 1 164.800000 49.984000 15.000000
2446 1 166.448000 51.477410 15.000000
2447 2 166.448000 52.256000 17.104598
2448 2 164.800000 53.749410 17.104598
2449 1 168.096000 0.000000 15.000000
2450 1 169.744000 1.493410 15.000000
2451 2 169.744000 2.272000 17.104598
2452 2 168.096000 3.765410 17.104598
2453 1 168.096000 4.544000 15.000000
2454 1 169.744000 6.037410 15.000000
2455 2 169.744000 6.816000 17.104598
2456 2 168.096000 8.309410 17.104598
2457 1 168.096000 9.088000 15.000000
2458 1 169.744000 10.581410 15.000000
2459 2 169.744000 11.360000 17.104598
2460 2 168.096000 12.853410 17.104598
2461 1 168.096000 13.632000 15.000000
2462 1 169.744000 15.125410 15.000000
2463 2 169.744000 15.904000 17.104598
2464 2 168.096000 17.397410 17.104598
2465 1 168.096000 18.176000 15.000000
2466 1 169.744000 19.669410 15.000000
2467 2 169.744000 20.448000 17.104598
2468 2 168.096000 21.941410 17.104598
2469 1 168.096000 22.720000 15.000000
2470 1 169.744000 24.213410 15.000000
2471 2 169.744000 24.992000 17.104598
2472 2 168.096000 26.485410 17.104598
2473 1 168.096000 27.264000 15.000000
2474 1 169.744000 28.757410 15.000000
2475 2 169.744000 29.536000 17.104598
2476 2 168.096000 31.029410 17.104598
2477 1 168.096000 31.808000 15.000000
2478 1 169.744000 33.301410 15.000000
2479 2 169.744000 34.080000 17.104598
2480 2 168.096000 35.573410 17.104598
2481 1 168.096000 36.352000 15.000000
2482 1 169.744000 37.845410 15.000000
2483 2 169.744000 38.624000 17.104598
2484 2 168.096000 40.117410 17.104598
2485 1 168.096000 40.896000 15.000000
2486 1 169.744000 42.389410 15.000000
2487 2 169.744000 43.168000 17.104598
2488 2 168.096000 44.661410 17.104598
2489 1 168.096000 45.440000 15.000000
2490 1 169.744000 46.933410 15.000000
2491 2 169.744000 47.712000 17.104598
2492 2 168.096000 49.205410 17.104598
2493 1 168.096000 49.984000 15.000000
2494 1 169.744000 51.477410 15.000000
2495 2 169.744000 52.256000 17.104598
2496 2 168.096000 53.749410 17.104598
2497 1 171.392000 0.000000 15.000000
2498 1 173.040000 1.493410 15.000000
2499 2 173.040000 2.272000 17.104598
2500 2 171.392000 3.765410 17.104598
2501 1 171.392000 4.544000 15.000000
2502 1 173.040000 6.037410 15.000000
2503 2 173.040000 6.816000 17.104598
2504 2 171.392000 8.309410 17.104598
2505 1 171.392000 9.088000 15.000000
2506 1 173.040000 10.581410 15.000000
2507 2 173.040000 11.360000 17.104598
2508 2 171.392000 12.853410 17.104598
2509 1 171.392000 13.632000 15.000000
2510 1 173.040000 15.125410 15.000000
2511 2 173.040000 15.904000 17.104598
2512 2 171.392000 17.397410 17.104598
2513 1 171.392000 18.176000 15.000000
2514 1 173.040000 19.669410 15.000000
2515 2 173.040000 20.448000 17.104598
2516 2 171.392000 21.941410 17.104598
2517 1 171.392000 22.720000 15.000000
2518 1 173.040000 24.213410 15.000000
2519 2 173.040000 24.992000 17.104598
2520 2 171.392000 26.485410 17.104598
2521 1 171.392000 27.264000 15.000000
2522 1 173.040000 28.757410 15.000000
2523 2 173.040000 29.536000 17.104598
2524 2 171.392000 31.029410 17.104598
2525 1 171.392000 31.808000 15.000000
2526 1 173.040000 33.301410 15.000000
2527 2 173.040000 34.080000 17.104598
2528 2 171.392000 35.573410 17.104598
2529 1 171.392000 36.352000 15.000000
2530 1 173.040000 37.845410 15.000000
2531 2 173.040000 38.624000 17.104598
2532 2 171.392000 40.117410 17.104598
2533 1 171.392000 40.896000 15.000000
2534 1 173.040000 42.389410 15.000000
2535 2 173.040000 43.168000 17.104598
2536 2 171.392000 44.661410 17.104598
2537 1 171.392000 45.440000 15.000000
2538 1 173.040000 46.933410 15.000000
2539 2 173.040000 47.712000 17.104598
2540 2 171.392000 49.205410 17.104598
2541 1 171.392000 49.984000 15.000000
2542 1 173.040000 51.477410 15.000000
2543 2 173.040000 52.256000 17.104598
2544 2 171.392000 53.749410 17.104598
2545 1 174.688000 0.000000 15.000000
2546 1 176.336000 1.493410 15.000000
2547 2 176.336000 2.272000 17.104598
2548 2 174.688000 3.765410 17.104598
2549 1 174.688000 4.544000 15.000000
2550 1 176.336000 6.037410 15.000000
2551 2 176.336000 6.816000 17.104598
2552 2 174.688000 8.309410 17.104598
2553 1 174.688000 9.088000 15.000000
2554 1 176.336000 10.581410 15.000000
2555 2 176.336000 11.360000 17.104598
2556 2 174.688000 12.853410 17.104598
2557 1 174.688000 13.632000 15.000000
2558 1 176.336000 15.125410 15.000000
2559 2 176.336000 15.904000 17.104598
2560 2 174.688000 17.397410 17.104598
2561 1 174.688000 18.176000 15.000000
2562 1 176.336000 19.669410 15.000000
2563 2 176.336000 20.448000 17.104598
2564 2 174.688000 21.941410 17.104598
2565 1 174.688000 22.720000 15.000000
2566 1 176.336000 24.213410 15.000000
2567 2 176.336000 24.992000 17.104598
2568 2 174.688000 26.485410 17.104598
2569 1 174.688000 27.264000 15.000000
2570 1 176.336000 28.757410 15.000000
2571 2 176.336000 29.536000 17.104598
2572 2 174.688000 31.029410 17.104598
2573 1 174.688000 31.808000 15.000000
2574 1 176.336000 33.301410 15.000000
2575 2 176.336000 34.080000 17.104598
2576 2 174.688000 35.573410 17.104598
2577 1 174.688000 36.352000 15.000000
2578 1 176.336000 37.845410 15.000000
2579 2 176.336000 38.624000 17.104598
2580 2 174.688000 40.117410 17.104598
2581 1 174.688000 40.896000 15.000000
2582 1 176.336000 42.389410 15.000000
2583 2 176.336000 43.168000 17.104598
2584 2 174.688000 44.661410 17.104598
2585 1 174.688000 45.440000 15.000000
2586 1 176.336000 46.933410 15.000000
2587 2 176.336000 47.712000 17.104598
2588 2 174.688000 49.205410 17.104598
2589 1 174.688000 49.984000 15.000000
2590 1 176.336000 51.477410 15.000000
2591 2 176.336000 52.256000 17.104598
2592 2 174.688000 53.749410 17.104598
2593 1 177.984000 0.000000 15.000000
2594 1 179.632000 1.493410 15.000000
2595 2 179.632000 2.272000 17.104598
2596 2 177.984000 3.765410 17.104598
2597 1 177.984000 4.544000 15.000000
2598 1 179.632000 6.037410 15.000000
2599 2 179.632000 6.816000 17.104598
2600 2 177.984000 8.309410 17.104598
2601 1 177.984000 9.088000 15.000000
2602 1 179.632000 10.581410 15.000000
2603 2 179.632000 11.360000 17.104598
2604 2 177.984000 12.853410 17.104598
2605 1 177.984000 13.632000 15.000000
2606 1 179.632000 15.125410 15.000000
2607 2 179.632000 15.904000 17.104598
2608 2 177.984000 17.397410 17.104598
2609 1 177.984000 18.176000 15.000000
2610 1 179.632000 19.669410 15.000000
2611 2 179.632000 20.448000 17.104598
2612 2 177.984000 21.941410 17.104598
2613 1 177.984000 22.720000 15.000000
2614 1 179.632000 24.213410 15.000000
2615 2 179.632000 24.992000 17.104598
2616 2 177.984000 26.485410 17.104598
2617 1 177.984000 27.264000 15.000000
2618 1 179.632000 28.757410 15.000000
2619 2 179.632000 29.536000 17.104598
2620 2 177.984000 31.029410 17.104598
2621 1 177.984000 31.808000 15.000000
2622 1 179.632000 33.301410 15.000000
2623 2 179.632000 34.080000 17.104598
2624 2 177.984000 35.573410 17.104598
2625 1 177.984000 36.352000 15.000000
2626 1 179.632000 37.845410 15.000000
2627 2 179.632000 38.624000 17.104598
2628 2 177.984000 40.117410 17.104598
2629 1 177.984000 40.896000 15.000000
2630 1 179.632000 42.389410 15.000000
2631 2 179.632000 43.168000 17.104598
2632 2 177.984000 44.661410 17.104598
2633 1 177.984000 45.440000 15.000000
2634 1 179.632000 46.933410 15.000000
2635 2 179.632000 47.712000 17.104598
2636 2 177.984000 49.205410 17.104598
2637 1 177.984000 49.984000 15.000000
2638 1 179.632000 51.477410 15.000000
2639 2 179.632000 52.256000 17.104598
2640 2 177.984000 53.749410 17.104598
2641 1 181.280000 0.000000 15.000000
2642 1 182.928000 1.493410 15.000000
2643 2 182.928000 2.272000 17.104598
2644 2 181.280000 3.765410 17.104598
2645 1 181.280000 4.544000 15.000000
2646 1 182.928000 6.037410 15.000000
2647 2 182.928000 6.816000 17.104598
2648 2 181.280000 8.309410 17.104598
2649 1 181.280000 9.088000 15.000000
2650 1 182.928000 10.581410 15.000000
2651 2 182.928000 11.360000 17.104598
2652 2 181.280000 12.853410 17.104598
2653 1 181.280000 13.632000 15.000000
2654 1 182.928000 15.125410 15.000000
2655 2 182.928000 15.904000 17.104598
2656 2 181.280000 17.397410 17.104598
2657 1 181.280000 18.176000 15.000000
2658 1 182.928000 19.669410 15.000000
2659 2 182.928000 20.448000 17.104598
2660 2 181.280000 21.941410 17.104598
2661 1 181.280000 22.720000 15.000000
2662 1 182.928000 24.213410 15.000000
2663 2 182.928000 24.992000 17.104598
2664 2 181.280000 26.485410 17.104598
2665 1 181.280000 27.264000 15.000000
2666 1 182.928000 28.757410 15.000000
2667 2 182.928000 29.536000 17.104598
2668 2 181.280000 31.029410 17.104598
2669 1 181.280000 31.808000 15.000000
2670 1 182.928000 33.301410 15.000000
2671 2 182.928000 34.080000 17.104598
2672 2 181.280000 35.573410 17.104598
2673 1 181.280000 36.352000 15.000000
2674 1 182.928000 37.845410 15.000000
2675 2 182.928000 38.624000 17.104598
2676 2 181.280000 40.117410 17.104598
2677 1 181.280000 40.896000 15.000000
2678 1 182.928000 42.389410 15.000000
2679 2 182.928000 43.168000 17.104598
2680 2 181.280000 44.661410 17.104598
2681 1 181.280000 45.440000 15.000000
2682 1 182.928000 46.933410 15.000000
2683 2 182.928000 47.712000 17.104598
2684 2 181.280000 49.205410 17.104598
2685 1 181.280000 49.984000 15.000000
2686 1 182.928000 51.477410 15.000000
2687 2 182.928000 52.256000 17.104598
2688 2 181.280000 53.749410 17.104598
2689 1 184.576000 0.000000 15.000000
2690 1 186.224000 1.493410 15.000000
2691 2 186.224000 2.272000 17.104598
2692 2 184.576000 3.765410 17.104598
2693 1 184.576000 4.544000 15.000000
2694 1 186.224000 6.037410 15.000000
2695 2 186.224000 6.816000 17.104598
2696 2 184.576000 8.309410 17.104598
2697 1 184.576000 9.088000 15.000000
2698 1 186.224000 10.581410 15.000000
2699 2 186.224000 11.360000 17.104598
2700 2 184.576000 12.853410 17.104598
2701 1 184.576000 13.632000 15.000000
2702 1 186.224000 15.125410 15.000000
2703 2 186.224000 15.904000 17.104598
2704 2 184.576000 17.397410 17.104598
2705 1 184.576000 18.176000 15.000000
2706 1 186.224000 19.669410 15.000000
2707 2 186.224000 20.448000 17.104598
2708 2 184.576000 21.941410 17.104598
2709 1 184.576000 22.720000 15.000000
2710 1 186.224000 24.213410 15.000000
2711 2 186.224000 24.992000 17.104598
2712 2 184.576000 26.485410 17.104598
2713 1 184.576000 27.264000 15.000000
2714 1 186.224000 28.757410 15.000000
2715 2 186.224000 29.536000 17.104598
2716 2 184.576000 31.029410 17.104598
2717 1 184.576000 31.808000 15.000000
2718 1 186.224000 33.301410 15.000000
2719 2 186.224000 34.080000 17.104598
2720 2 184.576000 35.573410 17.104598
2721 1 184.576000 36.352000 15.000000
2722 1 186.224000 37.845410 15.000000
2723 2 186.224000 38.624000 17.104598
2724 2 184.576000 40.117410 17.104598
2725 1 184.576000 40.896000 15.000000
2726 1 186.224000 42.389410 15.000000
2727 2 186.224000 43.168000 17.104598
2728 2 184.576000 44.661410 17.104598
2729 1 184.576000 45.440000 15.000000
2730 1 186.224000 46.933410 15.000000
2731 2 186.224000 47.712000 17.104598
2732 2 184.576000 49.205410 17.104598
2733 1 184.576000 49.984000 15.000000
2734 1 186.224000 51.477410 15.000000
2735 2 186.224000 52.256000 17.104598
2736 2 184.576000 53.749410 17.104598
2737 1 187.872000 0.000000 15.000000
2738 1 189.520000 1.493410 15.000000
2739 2 189.520000 2.272000 17.104598
2740 2 187.872000 3.765410 17.104598
2741 1 187.872000 4.544000 15.000000
2742 1 189.520000 6.037410 15.000000
2743 2 189.520000 6.816000 17.104598
2744 2 187.872000 8.309410 17.104598
2745 1 187.872000 9.088000 15.000000
2746 1 189.520000 10.581410 15.000000
2747 2 189.520000 11.360000 17.104598
2748 2 187.872000 12.853410 17.104598
2749 1 187.872000 13.632000 15.000000
2750 1 189.520000 15.125410 15.000000
2751 2 189.520000 15.904000 17.104598
2752 2 187.872000 17.397410 17.104598
2753 1 187.872000 18.176000 15.000000
2754 1 189.520000 19.669410 15.000000
2755 2 189.520000 20.448000 17.104598
2756 2 187.872000 21.941410 17.104598
2757 1 187.872000 22.720000 15.000000
2758 1 189.520000 24.213410 15.000000
2759 2 189.520000 24.992000 17.104598
2760 2 187.872000 26.485410 17.104598
2761 1 187.872000 27.264000 15.000000
2762 1 189.520000 28.757410 15.000000
2763 2 189.520000 29.536000 17.104598
2764 2 187.872000 31.029410 17.104598
2765 1 187.872000 31.808000 15.000000
2766 1 189.520000 33.301410 15.000000
2767 2 189.520000 34.080000 17.104598
2768 2 187.872000 35.573410 17.104598
2769 1 187.872000 36.352000 15.000000
2770 1 189.520000 37.845410 15.000000
2771 2 189.520000 38.624000 17.104598
2772 2 187.872000 40.117410 17.104598
2773 1 187.872000 40.896000 15.000000
2774 1 189.520000 42.389410 15.000000
2775 2 189.520000 43.168000 17.104598
2776 2 187.872000 44.661410 17.104598
2777 1 187.872000 45.440000 15.000000
2778 1 189.520000 46.933410 15.000000
2779 2 189.520000 47.712000 17.104598
2780 2 187.872000 49.205410 17.104598
2781 1 187.872000 49.984000 15.000000
2782 1 189.520000 51.477410 15.000000
2783 2 189.520000 52.256000 17.104598
2784 2 187.872000 53.749410 17.104598
2785 1 191.168000 0.000000 15.000000
2786 1 192.816000 1.493410 15.000000
2787 2 192.816000 2.272000 17.104598
2788 2 191.168000 3.765410 17.104598
2789 1 191.168000 4.544000 15.000000
2790 1 192.816000 6.037410 15.000000
2791 2 192.816000 6.816000 17.104598
2792 2 191.168000 8.309410 17.104598
2793 1 191.168000 9.088000 15.000000
2794 1 192.816000 10.581410 15.000000
2795 2 192.816000 11.360000 17.104598
2796 2 191.168000 12.853410 17.104598
2797 1 191.168000 13.632000 15.000000
2798 1 192.816000 15.125410 15.000000
2799 2 192.816000 15.904000 17.104598
2800 2 191.168000 17.397410 17.104598
2801 1 191.168000 18.176000 15.000000
2802 1 192.816000 19.669410 15.000000
2803 2 192.816000 20.448000 17.104598
2804 2 191.168000 21.941410 17.104598
2805 1 191.168000 22.720000 15.000000
2806 1 192.816000 24.213410 15.000000
2807 2 192.816000 24.992000 17.104598
2808 2 191.168000 26.485410 17.104598
2809 1 191.168000 27.264000 15.000000
2810 1 192.816000 28.757410 15.000000
2811 2 192.816000 29.536000 17.104598
2812 2 191.168000 31.029410 17.104598
2813 1 191.168000 31.808000 15.000000
2814 1 192.816000 33.301410 15.000000
2815 2 192.816000 34.080000 17.104598
2816 2 191.168000 35.573410 17.104598
2817 1 191.168000 36.352000 15.000000
2818 1 192.816000 37.845410 15.000000
2819 2 192.816000 38.624000 17.104598
2820 2 191.168000 40.117410 17.104598
2821 1 191.168000 40.896000 15.000000
2822 1 192.816000 42.389410 15.000000
2823 2 192.816000 43.168000 17.104598
2824 2 191.168000 44.661410 17.104598
2825 1 191.168000 45.440000 15.000000
2826 1 192.816000 46.933410 15.000000
2827 2 192.816000 47.712000 17.104598
2828 2 191.168000 49.205410 17.104598
2829 1 191.168000 49.984000 15.000000
2830 1 192.816000 51.477410 15.000000
2831 2 192.816000 52.256000 17.104598
2832 2 191.168000 53.749410 17.104598
2833 1 194.464000 0.000000 15.000000
2834 1 196.112000 1.493410 15.000000
2835 2 196.112000 2.272000 17.104598
2836 2 194.464000 3.765410 17.104598
2837 1 194.464000 4.544000 15.000000
2838 1 196.112000 6.037410 15.000000
2839 2 196.112000 6.816000 17.104598
2840 2 194.464000 8.309410 17.104598
2841 1 194.464000 9.088000 15.000000
2842 1 196.112000 10.581410 15.000000
2843 2 196.112000 11.360000 17.104598
2844 2 194.464000 12.853410 17.104598
2845 1 194.464000 13.632000 15.000000
2846 1 196.112000 15.125410 15.000000
2847 2 196.112000 15.904000 17.104598
2848 2 194.464000 17.397410 17.104598
2849 1 194.464000 18.176000 15.000000
2850 1 196.112000 19.669410 15.000000
2851 2 196.112000 20.448000 17.104598
2852 2 194.464000 21.941410 17.104598
2853 1 194.464000 22.720000 15.000000
2854 1 196.112000 24.213410 15.000000
2855 2 196.112000 24.992000 17.104598
2856 2 194.464000 26.485410 17.104598
2857 1 194.464000 27.264000 15.000000
2858 1 196.112000 28.757410 15.000000
2859 2 196.112000 29.536000 17.104598
2860 2 194.464000 31.029410 17.104598
2861 1 194.464000 31.808000 15.000000
2862 1 196.112000 33.301410 15.000000
2863 2 196.112000 34.080000 17.104598
2864 2 194.464000 35.573410 17.104598
2865 1 194.464000 36.352000 15.000000
2866 1 196.112000 37.845410 15.000000
2867 2 196.112000 38.624000 17.104598
2868 2 194.464000 40.117410 17.104598
2869 1 194.464000 40.896000 15.000000
2870 1 196.112000 42.389410 15.000000
2871 2 196.112000 43.168000 17.104598
2872 2 194.464000 44.661410 17.104598
2873 1 194.464000 45.440000 15.000000
2874 1 196.112000 46.933410 15.000000
2875 2 196.112000 47.712000 17.104598
2876 2 194.464000 49.205410 17.104598
2877 1 194.464000 49.984000 15.000000
2878 1 196.112000 51.477410 15.000000
2879 2 196.112000 52.256000 17.104598
2880 2 194.464000 53.749410 17.104598
2881 1 197.760000 0.000000 15.000000
2882 1 199.408000 1.493410 15.000000
2883 2 199.408000 2.272000 17.104598
2884 2 197.760000 3.765410 17.104598
2885 1 197.760000 4.544000 15.000000
2886 1 199.408000 6.037410 15.000000
2887 2 199.408000 6.816000 17.104598
2888 2 197.760000 8.309410 17.104598
2889 1 197.760000 9.088000 15.000000
2890 1 199.408000 10.581410 15.000000
2891 2 199.408000 11.360000 17.104598
2892 2 197.760000 12.853410 17.104598
2893 1 197.760000 13.632000 15.000000
2894 1 199.408000 15.125410 15.000000
2895 2 199.408000 15.904000 17.104598
2896 2 197.760000 17.397410 17.104598
2897 1 197.760000 18.176000 15.000000
2898 1 199.408000 19.669410 15.000000
2899 2 199.408000 20.448000 17.104598
2900 2 197.760000 21.941410 17.104598
2901 1 197.760000 22.720000 15.000000
2902 1 199.408000 24.213410 15.000000
2903 2 199.408000 24.992000 17.104598
2904 2 197.760000 26.485410 17.104598
2905 1 197.760000 27.264000 15.000000
2906 1 199.408000 28.757410 15.000000
2907 2 199.408000 29.536000 17.104598
2908 2 197.760000 31.029410 17.104598
2909 1 197.760000 31.808000 15.000000
2910 1 199.408000 33.301410 15.000000
2911 2 199.408000 34.080000 17.104598
2912 2 197.760000 35.573410 17.104598
2913 1 197.760000 36.352000 15.000000
2914 1 199.408000 37.845410 15.000000
2915 2 199.408000 38.624000 17.104598
2916 2 197.760000 40.117410 17.104598
2917 1 197.760000 40.896000 15.000000
2918 1 199.408000 42.389410 15.000000
2919 2 199.408000 43.168000 17.104598
2920 2 197.760000 44.661410 17.104598
2921 1 197.760000 45.440000 15.000000
2922 1 199.408000 46.933410 15.000000
2923 2 199.408000 47.712000 17.104598
2924 2 197.760000 49.205410 17.104598
2925 1 197.760000 49.984000 15.000000
2926 1 199.408000 51.477410 15.000000
2927 2 199.408000 52.256000 17.104598
2928 2 197.760000 53.749410 17.104598
2929 1 201.056000 0.000000 15.000000
2930 1 202.704000 1.493410 15.000000
2931 2 202.704000 2.272000 17.104598
2932 2 201.056000 3.765410 17.104598
2933 1 201.056000 4.544000 15.000000
2934 1 202.704000 6.037410 15.000000
2935 2 202.704000 6.816000 17.104598
2936 2 201.056000 8.309410 17.104598
2937 1 201.056000 9.088000 15.000000
2938 1 202.704000 10.581410 15.000000
2939 2 202.704000 11.360000 17.104598
2940 2 201.056000 12.853410 17.104598
2941 1 201.056000 13.632000 15.000000
2942 1 202.704000 15.125410 15.000000
2943 2 202.704000 15.904000 17.104598
2944 2 201.056000 17.397410 17.104598
2945 1 201.056000 18.176000 15.000000
2946 1 202.704000 19.669410 15.000000
2947 2 202.704000 20.448000 17.104598
2948 2 201.056000 21.941410 17.104598
2949 1 201.056000 22.720000 15.000000
2950 1 202.704000 24.213410 15.000000
2951 2 202.704000 24.992000 17.104598
2952 2 201.056000 26.485410 17.104598
2953 1 201.056000 27.264000 15.000000
2954 1 202.704000 28.757410 15.000000
2955 2 202.704000 29.536000 17.104598
2956 2 201.056000 31.029410 17.104598
2957 1 201.056000 31.808000 15.000000
2958 1 202.704000 33.301410 15.000000
2959 2 202.704000 34.080000 17.104598
2960 2 201.056000 35.573410 17.104598
2961 1 201.056000 36.352000 15.000000
2962 1 202.704000 37.845410 15.000000
2963 2 202.704000 38.624000 17.104598
2964 2 201.056000 40.117410 17.104598
2965 1 201.056000 40.896000 15.000000
2966 1 202.704000 42.389410 15.000000
2967 2 202.704000 43.168000 17.104598
2968 2 201.056000 44.661410 17.104598
2969 1 201.056000 45.440000 15.000000
2970 1 202.704000 46.933410 15.000000
2971 2 202.704000 47.712000 17.104598
2972 2 201.056000 49.205410 17.104598
2973 1 201.056000 49.984000 15.000000
2974 1 202.704000 51.477410 15.000000
2975 2 202.704000 52.256000 17.104598
2976 2 201.056000 53.749410 17.104598
2977 1 204.352000 0.000000 15.000000
2978 1 206.000000 1.493410 15.000000
2979 2 206.000000 2.272000 17.104598
2980 2 204.352000 3.765410 17.104598
2981 1 204.352000 4.544000 15.000000
2982 1 206.000000 6.037410 15.000000
2983 2 206.000000 6.816000 17.104598
2984 2 204.352000 8.309410 17.104598
2985 1 204.352000 9.088000 15.000000
2986 1 206.000000 10.581410 15.000000
2987 2 206.000000 11.360000 17.104598
2988 2 204.352000 12.853410 17.104598
2989 1 204.352000 13.632000 15.000000
2990 1 206.000000 15.125410 15.000000
2991 2 206.000000 15.904000 17.104598
2992 2 204.352000 17.397410 17.104598
2993 1 204.352000 18.176000 15.000000
2994 1 206.000000 19.669410 15.000000
2995 2 206.000000 20.448000 17.104598
2996 2 204.352000 21.941410 17.104598
2997 1 204.352000 22.720000 15.000000
2998 1 206.000000 24.213410 15.000000
2999 2 206.000000 24.992000 17.104598
3000 2 204.352000 26.485410 17.104598
3001 1 204.352000 27.264000 15.000000
3002 1 206.000000 28.757410 15.000000
3003 2 206.000000 29.536000 17.104598
3004 2 204.352000 31.029410 17.104598
3005 1 204.352000 31.808000 15.000000
3006 1 206.000000 33.301410 15.000000
3007 2 206.000000 34.080000 17.104598
3008 2 204.352000 35.573410 17.104598
3009 1 204.352000 36.352000 15.000000
3010 1 206.000000 37.845410 15.000000
3011 2 206.000000 38.624000 17.104598
3012 2 204.352000 40.117410 17.104598
3013 1 204.352000 40.896000 15.000000
3014 1 206.000000 42.389410 15.000000
3015 2 206.000000 43.168000 17.104598
3016 2 204.352000 44.661410 17.104598
3017 1 204.352000 45.440000 15.000000
3018 1 206.000000 46.933410 15.000000
3019 2 206.000000 47.712000 17.104598
3020 2 204.352000 49.205410 17.104598
3021 1 204.352000 49.984000 15.000000
3022 1 206.000000 51.477410 15.000000
3023 2 206.000000 52.256000 17.104598
3024 2 204.352000 53.749410 17.104598
3025 1 207.648000 0.000000 15.000000
3026 1 209.296000 1.493410 15.000000
3027 2 209.296000 2.272000 17.104598
3028 2 207.648000 3.765410 17.104598
3029 1 207.648000 4.544000 15.000000
3030 1 209.296000 6.037410 15.000000
3031 2 209.296000 6.816000 17.104598
3032 2 207.648000 8.309410 17.104598
3033 1 207.648000 9.088000 15.000000
3034 1 209.296000 10.581410 15.000000
3035 2 209.296000 11.360000 17.104598
3036 2 207.648000 12.853410 17.104598
3037 1 207.648000 13.632000 15.000000
3038 1 209.296000 15.125410 15.000000
3039 2 209.296000 15.904000 17.104598
3040 2 207.648000 17.397410 17.104598
3041 1 207.648000 18.176000 15.000000
3042 1 209.296000 19.669410 15.000000
3043 2 209.296000 20.448000 17.104598
3044 2 207.648000 21.941410 17.104598
3045 1 207.648000 22.720000 15.000000
3046 1 209.296000 24.213410 15.000000
3047 2 209.296000 24.992000 17.104598
3048 2 207.648000 26.485410 17.104598
3049 1 207.648000 27.264000 15.000000
3050 1 209.296000 28.757410 15.000000
3051 2 209.296000 29.536000 17.104598
3052 2 207.648000 31.029410 17.104598
3053 1 207.648000 31.808000 15.000000
3054 1 209.296000 33.301410 15.000000
3055 2 209.296000 34.080000 17.104598
3056 2 207.648000 35.573410 17.104598
3057 1 207.648000 36.352000 15.000000
3058 1 209.296000 37.845410 15.000000
3059 2 209.296000 38.624000 17.104598
3060 2 207.648000 40.117410 17.104598
3061 1 207.648000 40.896000 15.000000
3062 1 209.296000 42.389410 15.000000
3063 2 209.296000 43.168000 17.104598
3064 2 207.648000 44.661410 17.104598
3065 1 207.648000 45.440000 15.000000
3066 1 209.296000 46.933410 15.000000
3067 2 209.296000 47.712000 17.104598
3068 2 207.648000 49.205410 17.104598
3069 1 207.648000 49.984000 15.000000
3070 1 209.296000 51.477410 15.000000
3071 2 209.296000 52.256000 17.104598
3072 2 207.648000 53.749410 17.104598
3073 1 210.944000 0.000000 15.000000
3074 1 212.592000 1.493410 15.000000
3075 2 212.592000 2.272000 17.104598
3076 2 210.944000 3.765410 17.104598
3077 1 210.944000 4.544000 15.000000
3078 1 212.592000 6.037410 15.000000
3079 2 212.592000 6.816000 17.104598
3080 2 210.944000 8.309410 17.104598
3081 1 210.944000 9.088000 15.000000
3082 1 212.592000 10.581410 15.000000
3083 2 212.592000 11.360000 17.104598
3084 2 210.944000 12.853410 17.104598
3085 1 210.944000 13.632000 15.000000
3086 1 212.592000 15.125410 15.000000
3087 2 212.592000 15.904000 17.104598
3088 2 210.944000 17.397410 17.104598
3089 1 210.944000 18.176000 15.000000
3090 1 212.592000 19.669410 15.000000
3091 2 212.592000 20.448000 17.104598
3092 2 210.944000 21.941410 17.104598
3093 1 210.944000 22.720000 15.000000
3094 1 212.592000 24.213410 15.000000
3095 2 212.592000 24.992000 17.104598
3096 2 210.944000 26.485410 17.104598
3097 1 210.944000 27.264000 15.000000
3098 1 212.592000 28.757410 15.000000
3099 2 212.592000 29.536000 17.104598
3100 2 210.944000 31.029410 17.104598
3101 1 210.944000 31.808000 15.000000
3102 1 212.592000 33.301410 15.000000
3103 2 212.592000 34.080000 17.104598
3104 2 210.944000 35.573410 17.104598
3105 1 210.944000 36.352000 15.000000
3106 1 212.592000 37.845410 15.000000
3107 2 212.592000 38.624000 17.104598
3108 2 210.944000 40.117410 17.104598
3109 1 210.944000 40.896000 15.000000
3110 1 212.592000 42.389410 15.000000
3111 2 212.592000 43.168000 17.104598
3112 2 210.944000 44.661410 17.104598
3113 1 210.944000 45.440000 15.000000
3114 1 212.592000 46.933410 15.000000
3115 2 212.592000 47.712000 17.104598
3116 2 210.944000 49.205410 17.104598
3117 1 210.944000 49.984000 15.000000
3118 1 212.592000 51.477410 15.000000
3119 2 212.592000 52.256000 17.104598
3120 2 210.944000 53.749410 17.104598
3121 1 214.240000 0.000000 15.000000
3122 1 215.888000 1.493410 15.000000
3123 2 215.888000 2.272000 17.104598
3124 2 214.240000 3.765410 17.104598
3125 1 214.240000 4.544000 15.000000
3126 1 215.888000 6.037410 15.000000
3127 2 215.888000 6.816000 17.104598
3128 2 214.240000 8.309410 17.104598
3129 1 214.240000 9.088000 15.000000
3130 1 215.888000 10.581410 15.000000
3131 2 215.888000 11.360000 17.104598
3132 2 214.240000 12.853410 17.104598
3133 1 214.240000 13.632000 15.000000
3134 1 215.888000 15.125410 15.000000
3135 2 215.888000 15.904000 17.104598
3136 2 214.240000 17.397410 17.104598
3137 1 214.240000 18.176000 15.000000
3138 1 215.888000 19.669410 15.000000
3139 2 215.888000 20.448000 17.104598
3140 2 214.240000 21.941410 17.104598
3141 1 214.240000 22.720000 15.000000
3142 1 215.888000 24.213410 15.000000
3143 2 215.888000 24.992000 17.104598
3144 2 214.240000 26.485410 17.104598
3145 1 214.240000 27.264000 15.000000
3146 1 215.888000 28.757410 15.000000
3147 2 215.888000 29.536000 17.104598
3148 2 214.240000 31.029410 17.104598
3149 1 214.240000 31.808000 15.000000
3150 1 215.888000 33.301410 15.000000
3151 2 215.888000 34.080000 17.104598
3152 2 214.240000 35.573410 17.104598
3153 1 214.240000 36.352000 15.000000
3154 1 215.888000 37.845410 15.000000
3155 2 215.888000 38.624000 17.104598
3156 2 214.240000 40.117410 17.104598
3157 1 214.240000 40.896000 15.000000
3158 1 215.888000 42.389410 15.000000
3159 2 215.888000 43.168000 17.104598
3160 2 214.240000 44.661410 17.104598
3161 1 214.240000 45.440000 15.000000
3162 1 215.888000 46.933410 15.000000
3163 2 215.888000 47.712000 17.104598
3164 2 214.240000 49.205410 17.104598
3165 1 214.240000 49.984000 15.000000
3166 1 215.888000 51.477410 15.000000
3167 2 215.888000 52.256000 17.104598
3168 2 214.240000 53.749410 17.104598
3169 1 217.536000 0.000000 15.000000
3170 1 219.184000 1.493410 15.000000
3171 2 219.184000 2.272000 17.104598
3172 2 217.536000 3.765410 17.104598
3173 1 217.536000 4.544000 15.000000
3174 1 219.184000 6.037410 15.000000
3175 2 219.184000 6.816000 17.104598
3176 2 217.536000 8.309410 17.104598
3177 1 217.536000 9.088000 15.000000
3178 1 219.184000 10.581410 15.000000
3179 2 219.184000 11.360000 17.104598
3180 2 217.536000 12.853410 17.104598
3181 1 217.536000 13.632000 15.000000
3182 1 219.184000 15.125410 15.000000
3183 2 219.184000 15.904000 17.104598
3184 2 217.536000 17.397410 17.104598
3185 1 217.536000 18.176000 15.000000
3186 1 219.184000 19.669410 15.000000
3187 2 219.184000 20.448000 17.104598
3188 2 217.536000 21.941410 17.104598
3189 1 217.536000 22.720000 15.000000
3190 1 219.184000 24.213410 15.000000
3191 2 219.184000 24.992000 17.104598
3192 2 217.536000 26.485410 17.104598
3193 1 217.536000 27.264000 15.000000
3194 1 219.184000 28.757410 15.000000
3195 2 219.184000 29.536000 17.104598
3196 2 217.536000 31.029410 17.104598
3197 1 217.536000 31.808000 15.000000
3198 1 219.184000 33.301410 15.000000
3199 2 219.184000 34.080000 17.104598
3200 2 217.536000 35.573410 17.104598
3201 1 217.536000 36.352000 15.000000
3202 1 219.184000 37.845410 15.000000
3203 2 219.184000 38.624000 17.104598
3204 2 217.536000 40.117410 17.104598
3205 1 217.536000 40.896000 15.000000
3206 1 219.184000 42.389410 15.000000
3207 2 219.184000 43.168000 17.104598
3208 2 217.536000 44.661410 17.104598
3209 1 217.536000 45.440000 15.000000
3210 1 219.184000 46.933410 15.000000
3211 2 219.184000 47.712000 17.104598
3212 2 217.536000 49.205410 17.104598
3213 1 217.536000 49.984000 15.000000
3214 1 219.184000 51.477410 15.000000
3215 2 219.184000 52.256000 17.104598
3216 2 217.536000 53.749410 17.104598
3217 1 220.832000 0.000000 15.000000
3218 1 222.480000 1.493410 15.000000
3219 2 222.480000 2.272000 17.104598
3220 2 220.832000 3.765410 17.104598
3221 1 220.832000 4.544000 15.000000
3222 1 222.480000 6.037410 15.000000
3223 2 222.480000 6.816000 17.104598
3224 2 220.832000 8.309410 17.104598
3225 1 220.832000 9.088000 15.000000
3226 1 222.480000 10.581410 15.000000
3227 2 222.480000 11.360000 17.104598
3228 2 220.832000 12.853410 17.104598
3229 1 220.832000 13.632000 15.000000
3230 1 222.480000 15.125410 15.000000
3231 2 222.480000 15.904000 17.104598
3232 2 220.832000 17.397410 17.104598
3233 1 220.832000 18.176000 15.000000
3234 1 222.480000 19.669410 15.000000
3235 2 222.480000 20.448000 17.104598
3236 2 220.832000 21.941410 17.104598
3237 1 220.832000 22.720000 15.000000
3238 1 222.480000 24.213410 15.000000
3239 2 222.480000 24.992000 17.104598
3240 2 220.832000 26.485410 17.104598
3241 1 220.832000 27.264000 15.000000
3242 1 222.480000 28.757410 15.000000
3243 2 222.480000 29.536000 17.104598
3244 2 220.832000 31.029410 17.104598
3245 1 220.832000 31.808000 15.000000
3246 1 222.480000 33.301410 15.000000
3247 2 222.480000 34.080000 17.104598
3248 2 220.832000 35.573410 17.104598
3249 1 220.832000 36.352000 15.000000
3250 1 222.480000 37.845410 15.000000
3251 2 222.480000 38.624000 17.104598
3252 2 220.832000 40.117410 17.104598
3253 1 220.832000 40.896000 15.000000
3254 1 222.480000 42.389410 15.000000
3255 2 222.480000 43.168000 17.104598
3256 2 220.832000 44.661410 17.104598
3257 1 220.832000 45.440000 15.000000
3258 1 222.480000 46.933410 15.000000
3259 2 222.480000 47.712000 17.104598
3260 2 220.832000 49.205410 17.104598
3261 1 220.832000 49.984000 15.000000
3262 1 222.480000 51.477410 15.000000
3263 2 222.480000 52.256000 17.104598
3264 2 220.832000 53.749410 17.104598
3265 1 224.128000 0.000000 15.000000
3266 1 225.776000 1.493410 15.000000
3267 2 225.776000 2.272000 17.104598
3268 2 224.128000 3.765410 17.104598
3269 1 224.128000 4.544000 15.000000
3270 1 225.776000 6.037410 15.000000
3271 2 225.776000 6.816000 17.104598
3272 2 224.128000 8.309410 17.104598
3273 1 224.128000 9.088000 15.000000
3274 1 225.776000 10.581410 15.000000
3275 2 225.776000 11.360000 17.104598
3276 2 224.128000 12.853410 17.104598
3277 1 224.128000 13.632000 15.000000
3278 1 225.776000 15.125410 15.000000
3279 2 225.776000 15.904000 17.104598
3280 2 224.128000 17.397410 17.104598
3281 1 224.128000 18.176000 15.000000
3282 1 225.776000 19.669410 15.000000
3283 2 225.776000 20.448000 17.104598
3284 2 224.128000 21.941410 17.104598
3285 1 224.128000 22.720000 15.000000
3286 1 225.776000 24.213410 15.000000
3287 2 225.776000 24.992000 17.104598
3288 2 224.128000 26.485410 17.104598
3289 1 224.128000 27.264000 15.000000
3290 1 225.776000 28.757410 15.000000
3291 2 225.776000 29.536000 17.104598
3292 2 224.128000 31.029410 17.104598
3293 1 224.128000 31.808000 15.000000
3294 1 225.776000 33.301410 15.000000
3295 2 225.776000 34.080000 17.104598
3296 2 224.128000 35.573410 17.104598
3297 1 224.128000 36.352000 15.000000
3298 1 225.776000 37.845410 15.000000
3299 2 225.776000 38.624000 17.104598
3300 2 224.128000 40.117410 17.104598
3301 1 224.128000 40.896000 15.000000
3302 1 225.776000 42.389410 15.000000
3303 2 225.776000 43.168000 17.104598
3304 2 224.128000 44.661410 17.104598
3305 1 224.128000 45.440000 15.000000
3306 1 225.776000 46.933410 15.000000
3307 2 225.776000 47.712000 17.104598
3308 2 224.128000 49.205410 17.104598
3309 1 224.128000 49.984000 15.000000
3310 1 225.776000 51.477410 15.000000
3311 2 225.776000 52.256000 17.104598
3312 2 224.128000 53.749410 17.104598
3313 1 227.424000 0.000000 15.000000
3314 1 229.072000 1.493410 15.000000
3315 2 229.072000 2.272000 17.104598
3316 2 227.424000 3.765410 17.104598
3317 1 227.424000 4.544000 15.000000
3318 1 229.072000 6.037410 15.000000
3319 2 229.072000 6.816000 17.104598
3320 2 227.424000 8.309410 17.104598
3321 1 227.424000 9.088000 15.000000
3322 1 229.072000 10.581410 15.000000
3323 2 229.072000 11.360000 17.104598
3324 2 227.424000 12.853410 17.104598
3325 1 227.424000 13.632000 15.000000
3326 1 229.072000 15.125410 15.000000
3327 2 229.072000 15.904000 17.104598
3328 2 227.424000 17.397410 17.104598
3329 1 227.424000 18.176000 15.000000
3330 1 229.072000 19.669410 15.000000
3331 2 229.072000 20.448000 17.104598
3332 2 227.424000 21.941410 17.104598
3333 1 227.424000 22.720000 15.000000
3334 1 229.072000 24.213410 15.000000
3335 2 229.072000 24.992000 17.104598
3336 2 227.424000 26.485410 17.104598
3337 1 227.424000 27.264000 15.000000
3338 1 229.072000 28.757410 15.000000
3339 2 229.072000 29.536000 17.104598
3340 2 227.424000 31.029410 17.104598
3341 1 227.424000 31.808000 15.000000
3342 1 229.072000 33.301410 15.000000
3343 2 229.072000 34.080000 17.104598
3344 2 227.424000 35.573410 17.104598
3345 1 227.424000 36.352000 15.000000
3346 1 229.072000 37.845410 15.000000
3347 2 229.072000 38.624000 17.104598
3348 2 227.424000 40.117410 17.104598
3349 1 227.424000 40.896000 15.000000
3350 1 229.072000 42.389410 15.000000
3351 2 229.072000 43.168000 17.104598
3352 2 227.424000 44.661410 17.104598
3353 1 227.424000 45.440000 15.000000
3354 1 229.072000 46.933410 15.000000
3355 2 229.072000 47.712000 17.104598
3356 2 227.424000 49.205410 17.104598
3357 1 227.424000 49.984000 15.000000
3358 1 229.072000 51.477410 15.000000
3359 2 229.072000 52.256000 17.104598
3360 2 227.424000 53.749410 17.104598
3361 1 230.720000 0.000000 15.000000
3362 1 232.368000 1.493410 15.000000
3363 2 232.368000 2.272000 17.104598
3364 2 230.720000 3.765410 17.104598
3365 1 230.720000 4.544000 15.000000
3366 1 232.368000 6.037410 15.000000
3367 2 232.368000 6.816000 17.104598
3368 2 230.720000 8.309410 17.104598
3369 1 230.720000 9.088000 15.000000
3370 1 232.368000 10.581410 15.000000
3371 2 232.368000 11.360000 17.104598
3372 2 230.720000 12.853410 17.104598
3373 1 230.720000 13.632000 15.000000
3374 1 232.368000 15.125410 15.000000
3375 2 232.368000 15.904000 17.104598
3376 2 230.720000 17.397410 17.104598
3377 1 230.720000 18.176000 15.000000
3378 1 232.368000 19.669410 15.000000
3379 2 232.368000 20.448000 17.104598
3380 2 230.720000 21.941410 17.104598
3381 1 230.720000 22.720000 15.000000
3382 1 232.368000 24.213410 15.000000
3383 2 232.368000 24.992000 17.104598
3384 2 230.720000 26.485410 17.104598
3385 1 230.720000 27.264000 15.000000
3386 1 232.368000 28.757410 15.000000
3387 2 232.368000 29.536000 17.104598
3388 2 230.720000 31.029410 17.104598
3389 1 230.720000 31.808000 15.000000
3390 1 232.368000 33.301410 15.000000
3391 2 232.368000 34.080000 17.104598
3392 2 230.720000 35.573410 17.104598
3393 1 230.720000 36.352000 15.000000
3394 1 232.368000 37.845410 15.000000
3395 2 232.368000 38.624000 17.104598
3396 2 230.720000 40.117410 17.104598
3397 1 230.720000 40.896000 15.000000
3398 1 232.368000 42.389410 15.000000
3399 2 232.368000 43.168000 17.104598
3400 2 230.720000 44.661410 17.104598
3401 1 230.720000 45.440000 15.000000
3402 1 232.368000 46.933410 15.000000
3403 2 232.368000 47.712000 17.104598
3404 2 230.720000 49.205410 17.104598
3405 1 230.720000 49.984000 15.000000
3406 1 232.368000 51.477410 15.000000
3407 2 232.368000 52.256000 17.104598
3408 2 230.720000 53.749410 17.104598
3409 1 234.016000 0.000000 15.000000
3410 1 235.664000 1.493410 15.000000
3411 2 235.664000 2.272000 17.104598
3412 2 234.016000 3.765410 17.104598
3413 1 234.016000 4.544000 15.000000
3414 1 235.664000 6.037410 15.000000
3415 2 235.664000 6.816000 17.104598
3416 2 234.016000 8.309410 17.104598
3417 1 234.016000 9.088000 15.000000
3418 1 235.664000 10.581410 15.000000
3419 2 235.664000 11.360000 17.104598
3420 2 234.016000 12.853410 17.104598
3421 1 234.016000 13.632000 15.000000
3422 1 235.664000 15.125410 15.000000
3423 2 235.664000 15.904000 17.104598
3424 2 234.016000 17.397410 17.104598
3425 1 234.016000 18.176000 15.000000
3426 1 235.664000 19.669410 15.000000
3427 2 235.664000 20.448000 17.104598
3428 2 234.016000 21.941410 17.104598
3429 1 234.016000 22.720000 15.000000
3430 1 235.664000 24.213410 15.000000
3431 2 235.664000 24.992000 17.104598
3432 2 234.016000 26.485410 17.104598
3433 1 234.016000 27.264000 15.000000
3434 1 235.664000 28.757410 15.000000
3435 2 235.664000 29.536000 17.104598
3436 2 234.016000 31.029410 17.104598
3437 1 234.016000 31.808000 15.000000
3438 1 235.664000 33.301410 15.000000
3439 2 235.664000 34.080000 17.104598
3440 2 234.016000 35.573410 17.104598
3441 1 234.016000 36.352000 15.000000
3442 1 235.664000 37.845410 15.000000
3443 2 235.664000 38.624000 17.104598
3444 2 234.016000 40.117410 17.104598
3445 1 234.016000 40.896000 15.000000
3446 1 235.664000 42.389410 15.000000
3447 2 235.664000 43.168000 17.104598
3448 2 234.016000 44.661410 17.104598
3449 1 234.016000 45.440000 15.000000
3450 1 235.664000 46.933410 15.000000
3451 2 235.664000 47.712000 17.104598
3452 2 234.016000 49.205410 17.104598
3453 1 234.016000 49.984000 15.000000
3454 1 235.664000 51.477410 15.000000
3455 2 235.664000 52.256000 17.104598
3456 2 234.016000 53.749410 17.104598
3457 1 237.312000 0.000000 15.000000
3458 1 238.960000 1.493410 15.000000
3459 2 238.960000 2.272000 17.104598
3460 2 237.312000 3.765410 17.104598
3461 1 237.312000 4.544000 15.000000
3462 1 238.960000 6.037410 15.000000
3463 2 238.960000 6.816000 17.104598
3464 2 237.312000 8.309410 17.104598
3465 1 237.312000 9.088000 15.000000
3466 1 238.960000 10.581410 15.000000
3467 2 238.960000 11.360000 17.104598
3468 2 237.312000 12.853410 17.104598
3469 1 237.312000 13.632000 15.000000
3470 1 238.960000 15.125410 15.000000
3471 2 238.960000 15.904000 17.104598
3472 2 237.312000 17.397410 17.104598
3473 1 237.312000 18.176000 15.000000
3474 1 238.960000 19.669410 15.000000
3475 2 238.960000 20.448000 17.104598
3476 2 237.312000 21.941410 17.104598
3477 1 237.312000 22.720000 15.000000
3478 1 238.960000 24.213410 15.000000
3479 2 238.960000 24.992000 17.104598
3480 2 237.312000 26.485410 17.104598
3481 1 237.312000 27.264000 15.000000
3482 1 238.960000 28.757410 15.000000
3483 2 238.960000 29.536000 17.104598
3484 2 237.312000 31.029410 17.104598
3485 1 237.312000 31.808000 15.000000
3486 1 238.960000 33.301410 15.000000
3487 2 238.960000 34.080000 17.104598
3488 2 237.312000 35.573410 17.104598
3489 1 237.312000 36.352000 15.000000
3490 1 238.960000 37.845410 15.000000
3491 2 238.960000 38.624000 17.104598
3492 2 237.312000 40.117410 17.104598
3493 1 237.312000 40.896000 15.000000
3494 1 238.960000 42.389410 15.000000
3495 2 238.960000 43.168000 17.104598
3496 2 237.312000 44.661410 17.104598
3497 1 237.312000 45.440000 15.000000
3498 1 238.960000 46.933410 15.000000
3499 2 238.960000 47.712000 17.104598
3500 2 237.312000 49.205410 17.104598
3501 1 237.312000 49.984000 15.000000
3502 1 238.960000 51.477410 15.000000
3503 2 238.960000 52.256000 17.104598
3504 2 237.312000 53.749410 17.104598
3505 1 240.608000 0.000000 15.000000
3506 1 242.256000 1.493410 15.000000
3507 2 242.256000 2.272000 17.104598
3508 2 240.608000 3.765410 17.104598
3509 1 240.608000 4.544000 15.000000
3510 1 242.256000 6.037410 15.000000
3511 2 242.256000 6.816000 17.104598
3512 2 240.608000 8.309410 17.104598
3513 1 240.608000 9.088000 15.000000
3514 1 242.256000 10.581410 15.000000
3515 2 242.256000 11.360000 17.104598
3516 2 240.608000 12.853410 17.104598
3517 1 240.608000 13.632000 15.000000
3518 1 242.256000 15.125410 15.000000
3519 2 242.256000 15.904000 17.104598
3520 2 240.608000 17.397410 17.104598
3521 1 240.608000 18.176000 15.000000
3522 1 242.256000 19.669410 15.000000
3523 2 242.256000 20.448000 17.104598
3524 2 240.608000 21.941410 17.104598
3525 1 240.608000 22.720000 15.000000
3526 1 242.256000 24.213410 15.000000
3527 2 242.256000 24.992000 17.104598
3528 2 240.608000 26.485410 17.104598
3529 1 240.608000 27.264000 15.000000
3530 1 242.256000 28.757410 15.000000
3531 2 242.256000 29.536000 17.104598
3532 2 240.608000 31.029410 17.104598
3533 1 240.608000 31.808000 15.000000
3534 1 242.256000 33.301410 15.000000
3535 2 242.256000 34.080000 17.104598
3536 2 240.608000 35.573410 17.104598
3537 1 240.608000 36.352000 15.000000
3538 1 242.256000 37.845410 15.000000
3539 2 242.256000 38.624000 17.104598
3540 2 240.608000 40.117410 17.104598
3541 1 240.608000 40.896000 15.000000
3542 1 242.256000 42.389410 15.000000
3543 2 242.256000 43.168000 17.104598
3544 2 240.608000 44.661410 17.104598
3545 1 240.608000 45.440000 15.000000
3546 1 242.256000 46.933410 15.000000
3547 2 242.256000 47.712000 17.104598
3548 2 240.608000 49.205410 17.104598
3549 1 240.608000 49.984000 15.000000
3550 1 242.256000 51.477410 15.000000
3551 2 242.256000 52.256000 17.104598
3552 2 240.608000 53.749410 17.104598
3553 1 243.904000 0.000000 15.000000
3554 1 245.552000 1.493410 15.000000
3555 2 245.552000 2.272000 17.104598
3556 2 243.904000 3.765410 17.104598
3557 1 243.904000 4.544000 15.000000
3558 1 245.552000 6.037410 15.000000
3559 2 245.552000 6.816000 17.104598
3560 2 243.904000 8.309410 17.104598
3561 1 243.904000 9.088000 15.000000
3562 1 245.552000 10.581410 15.000000
3563 2 245.552000 11.360000 17.104598
3564 2 243.904000 12.853410 17.104598
3565 1 243.904000 13.632000 15.000000
3566 1 245.552000 15.125410 15.000000
3567 2 245.552000 15.904000 17.104598
3568 2 243.904000 17.397410 17.104598
3569 1 243.904000 18.176000 15.000000
3570 1 245.552000 19.669410 15.000000
3571 2 245.552000 20.448000 17.104598
3572 2 243.904000 21.941410 17.104598
3573 1 243.904000 22.720000 15.000000
3574 1 245.552000 24.213410 15.000000
3575 2 245.552000 24.992000 17.104598
3576 2 243.904000 26.485410 17.104598
3577 1 243.904000 27.264000 15.000000
3578 1 245.552000 28.757410 15.000000
3579 2 245.552000 29.536000 17.104598
3580 2 243.904000 31.029410 17.104598
3581 1 243.904000 31.808000 15.000000
3582 1 245.552000 33.301410 15.000000
3583 2 245.552000 34.080000 17.104598
3584 2 243.904000 35.573410 17.104598
3585 1 243.904000 36.352000 15.000000
3586 1 245.552000 37.845410 15.000000
3587 2 245.552000 38.624000 17.104598
3588 2 243.904000 40.117410 17.104598
3589 1 243.904000 40.896000 15.000000
3590 1 245.552000 42.389410 15.000000
3591 2 245.552000 43.168000 17.104598
3592 2 243.904000 44.661410 17.104598
3593 1 243.904000 45.440000 15.000000
3594 1 245.552000 46.933410 15.000000
3595 2 245.552000 47.712000 17.104598
3596 2 243.904000 49.205410 17.104598
3597 1 243.904000 49.984000 15.000000
3598 1 245.552000 51.477410 15.000000
3599 2 245.552000 52.256000 17.104598
3600 2 243.904000 53.749410 17.104598
3601 1 247.200000 0.000000 15.000000
3602 1 248.848000 1.493410 15.000000
3603 2 248.848000 2.272000 17.104598
3604 2 247.200000 3.765410 17.104598
3605 1 247.200000 4.544000 15.000000
3606 1 248.848000 6.037410 15.000000
3607 2 248.848000 6.816000 17.104598
3608 2 247.200000 8.309410 17.104598
3609 1 247.200000 9.088000 15.000000
3610 1 248.848000 10.581410 15.000000
3611 2 248.848000 11.360000 17.104598
3612 2 247.200000 12.853410 17.104598
3613 1 247.200000 13.632000 15.000000
3614 1 248.848000 15.125410 15.000000
3615 2 248.848000 15.904000 17.104598
3616 2 247.200000 17.397410 17.104598
3617 1 247.200000 18.176000 15.000000
3618 1 248.848000 19.669410 15.000000
3619 2 248.848000 20.448000 17.104598
3620 2 247.200000 21.941410 17.104598
3621 1 247.200000 22.720000 15.000000
3622 1 248.848000 24.213410 15.000000
3623 2 248.848000 24.992000 17.104598
3624 2 247.200000 26.485410 17.104598
3625 1 247.200000 27.264000 15.000000
3626 1 248.848000 28.757410 15.000000
3627 2 248.848000 29.536000 17.104598
3628 2 247.200000 31.029410 17.104598
3629 1 247.200000 31.808000 15.000000
3630 1 248.848000 33.301410 15.000000
3631 2 248.848000 34.080000 17.104598
3632 2 247.200000 35.573410 17.104598
3633 1 247.200000 36.352000 15.000000
3634 1 248.848000 37.845410 15.000000
3635 2 248.848000 38.624000 17.104598
3636 2 247.200000 40.117410 17.104598
3637 1 247.200000 40.896000 15.000000
3638 1 248.848000 42.389410 15.000000
3639 2 248.848000 43.168000 17.104598
3640 2 247.200000 44.661410 17.104598
3641 1 247.200000 45.440000 15.000000
3642 1 248.848000 46.933410 15.000000
3643 2 248.848000 47.712000 17.104598
3644 2 247.200000 49.205410 17.104598
3645 1 247.200000 49.984000 15.000000
3646 1 248.848000 51.477410 15.000000
3647 2 248.848000 52.256000 17.104598
3648 2 247.200000 53.749410 17.104598
3649 1 250.496000 0.000000 15.000000
3650 1 252.144000 1.493410 15.000000
3651 2 252.144000 2.272000 17.104598
3652 2 250.496000 3.765410 17.104598
3653 1 250.496000 4.544000 15.000000
3654 1 252.144000 6.037410 15.000000
3655 2 252.144000 6.816000 17.104598
3656 2 250.496000 8.309410 17.104598
3657 1 250.496000 9.088000 15.000000
3658 1 252.144000 10.581410 15.000000
3659 2 252.144000 11.360000 17.104598
3660 2 250.496000 12.853410 17.104598
3661 1 250.496000 13.632000 15.000000
3662 1 252.144000 15.125410 15.000000
3663 2 252.144000 15.904000 17.104598
3664 2 250.496000 17.397410 17.104598
3665 1 250.496000 18.176000 15.000000
3666 1 252.144000 19.669410 15.000000
3667 2 252.144000 20.448000 17.104598
3668 2 250.496000 21.941410 17.104598
3669 1 250.496000 22.720000 15.000000
3670 1 252.144000 24.213410 15.000000
3671 2 252.144000 24.992000 17.104598
3672 2 250.496000 26.485410 17.104598
3673 1 250.496000 27.264000 15.000000
3674 1 252.144000 28.757410 15.000000
3675 2 252.144000 29.536000 17.104598
3676 2 250.496000 31.029410 17.104598
3677 1 250.496000 31.808000 15.000000
3678 1 252.144000 33.301410 15.000000
3679 2 252.144000 34.080000 17.104598
3680 2 250.496000 35.573410 17.104598
3681 1 250.496000 36.352000 15.000000
3682 1 252.144000 37.845410 15.000000
3683 2 252.144000 38.624000 17.104598
3684 2 250.496000 40.117410 17.104598
3685 1 250.496000 40.896000 15.000000
3686 1 252.144000 42.389410 15.000000
3687 2 252.144000 43.168000 17.104598
3688 2 250.496000 44.661410 17.104598
3689 1 250.496000 45.440000 15.000000
3690 1 252.144000 46.933410 15.000000
3691 2 252.144000 47.712000 17.104598
3692 2 250.496000 49.205410 17.104598
3693 1 250.496000 49.984000 15.000000
3694 1 252.144000 51.477410 15.000000
3695 2 252.144000 52.256000 17.104598
3696 2 250.496000 53.749410 17.104598
3697 1 253.792000 0.000000 15.000000
3698 1 255.440000 1.493410 15.000000
3699 2 255.440000 2.272000 17.104598
3700 2 253.792000 3.765410 17.104598
3701 1 253.792000 4.544000 15.000000
3702 1 255.440000 6.037410 15.000000
3703 2 255.440000 6.816000 17.104598
3704 2 253.792000 8.309410 17.104598
3705 1 253.792000 9.088000 15.000000
3706 1 255.440000 10.581410 15.000000
3707 2 255.440000 11.360000 17.104598
3708 2 253.792000 12.853410 17.104598
3709 1 253.792000 13.632000 15.000000
3710 1 255.440000 15.125410 15.000000
3711 2 255.440000 15.904000 17.104598
3712 2 253.792000 17.397410 17.104598
3713 1 253.792000 18.176000 15.000000
3714 1 255.440000 19.669410 15.000000
3715 2 255.440000 20.448000 17.104598
3716 2 253.792000 21.941410 17.104598
3717 1 253.792000 22.720000 15.000000
3718 1 255.440000 24.213410 15.000000
3719 2 255.440000 24.992000 17.104598
3720 2 253.792000 26.485410 17.104598
3721 1 253.792000 27.264000 15.000000
3722 1 255.440000 28.757410 15.000000
3723 2 255.440000 29.536000 17.104598
3724 2 253.792000 31.029410 17.104598
3725 1 253.792000 31.808000 15.000000
3726 1 255.440000 33.301410 15.000000
3727 2 255.440000 34.080000 17.104598
3728 2 253.792000 35.573410 17.104598
3729 1 253.792000 36.352000 15.000000
3730 1 255.440000 37.845410 15.000000
3731 2 255.440000 38.624000 17.104598
3732 2 253.792000 40.117410 17.104598
3733 1 253.792000 40.896000 15.000000
3734 1 255.440000 42.389410 15.000000
3735 2 255.440000 43.168000 17.104598
3736 2 253.792000 44.661410 17.104598
3737 1 253.792000 45.440000 15.000000
3738 1 255.440000 46.933410 15.000000
3739 2 255.440000 47.712000 17.104598
3740 2 253.792000 49.205410 17.104598
3741 1 253.792000 49.984000 15.000000
3742 1 255.440000 51.477410 15.000000
3743 2 255.440000 52.256000 17.104598
3744 2 253.792000 53.749410 17.104598
3745 1 257.088000 0.000000 15.000000
3746 1 258.736000 1.493410 15.000000
3747 2 258.736000 2.272000 17.104598
3748 2 257.088000 3.765410 17.104598
3749 1 257.088000 4.544000 15.000000
3750 1 258.736000 6.037410 15.000000
3751 2 258.736000 6.816000 17.104598
3752 2 257.088000 8.309410 17.104598
3753 1 257.088000 9.088000 15.000000
3754 1 258.736000 10.581410 15.000000
3755 2 258.736000 11.360000 17.104598
3756 2 257.088000 12.853410 17.104598
3757 1 257.088000 13.632000 15.000000
3758 1 258.736000 15.125410 15.000000
3759 2 258.736000 15.904000 17.104598
3760 2 257.088000 17.397410 17.104598
3761 1 257.088000 18.176000 15.000000
3762 1 258.736000 19.669410 15.000000
3763 2 258.736000 20.448000 17.104598
3764 2 257.088000 21.941410 17.104598
3765 1 257.088000 22.720000 15.000000
3766 1 258.736000 24.213410 15.000000
3767 2 258.736000 24.992000 17.104598
3768 2 257.088000 26.485410 17.104598
3769 1 257.088000 27.264000 15.000000
3770 1 258.736000 28.757410 15.000000
3771 2 258.736000 29.536000 17.104598
3772 2 257.088000 31.029410 17.104598
3773 1 257.088000 31.808000 15.000000
3774 1 258.736000 33.301410 15.000000
3775 2 258.736000 34.080000 17.104598
3776 2 257.088000 35.573410 17.104598
3777 1 257.088000 36.352000 15.000000
3778 1 258.736000 37.845410 15.000000
3779 2 258.736000 38.624000 17.104598
3780 2 257.088000 40.117410 17.104598
3781 1 257.088000 40.896000 15.000000
3782 1 258.736000 42.389410 15.000000
3783 2 258.736000 43.168000 17.104598
3784 2 257.088000 44.661410 17.104598
3785 1 257.088000 45.440000 15.000000
3786 1 258.736000 46.933410 15.000000
3787 2 258.736000 47.712000 17.104598
3788 2 257.088000 49.205410 17.104598
3789 1 257.088000 49.984000 15.000000
3790 1 258.736000 51.477410 15.000000
3791 2 258.736000 52.256000 17.104598
3792 2 257.088000 53.749410 17.104598
3793 1 260.384000 0.000000 15.000000
3794 1 262.032000 1.493410 15.000000
3795 2 262.032000 2.272000 17.104598
3796 2 260.384000 3.765410 17.104598
3797 1 260.384000 4.544000 15.000000
3798 1 262.032000 6.037410 15.000000
3799 2 262.032000 6.816000 17.104598
3800 2 260.384000 8.309410 17.104598
3801 1 260.384000 9.088000 15.000000
3802 1 262.032000 10.581410 15.000000
3803 2 262.032000 11.360000 17.104598
3804 2 260.384000 12.853410 17.104598
3805 1 260.384000 13.632000 15.000000
3806 1 262.032000 15.125410 15.000000
3807 2 262.032000 15.904000 17.104598
3808 2 260.384000 17.397410 17.104598
3809 1 260.384000 18.176000 15.000000
3810 1 262.032000 19.669410 15.000000
3811 2 262.032000 20.448000 17.104598
3812 2 260.384000 21.941410 17.104598
3813 1 260.384000 22.720000 15.000000
3814 1 262.032000 24.213410 15.000000
3815 2 262.032000 24.992000 17.104598
3816 2 260.384000 26.485410 17.104598
3817 1 260.384000 27.264000 15.000000
3818 1 262.032000 28.757410 15.000000
3819 2 262.032000 29.536000 17.104598
3820 2 260.384000 31.029410 17.104598
3821 1 260.384000 31.808000 15.000000
3822 1 262.032000 33.301410 15.000000
3823 2 262.032000 34.080000 17.104598
3824 2 260.384000 35.573410 17.104598
3825 1 260.384000 36.352000 15.000000
3826 1 262.032000 37.845410 15.000000
3827 2 262.032000 38.624000 17.104598
3828 2 260.384000 40.117410 17.104598
3829 1 260.384000 40.896000 15.000000
3830 1 262.032000 42.389410 15.000000
3831 2 262.032000 43.168000 17.104598
3832 2 260.384000 44.661410 17.104598
3833 1 260.384000 45.440000 15.000000
3834 1 262.032000 46.933410 15.000000
3835 2 262.032000 47.712000 17.104598
3836 2 260.384000 49.205410 17.104598
3837 1 260.384000 49.984000 15.000000
3838 1 262.032000 51.477410 15.000000
3839 2 262.032000 52.256000 17.104598
3840 2 260.384000 53.749410 17.104598
3841 1 263.680000 0.000000 15.000000
3842 1 265.328000 1.493410 15.000000
3843 2 265.328000 2.272000 17.104598
3844 2 263.680000 3.765410 17.104598
3845 1 263.680000 4.544000 15.000000
3846 1 265.328000 6.037410 15.000000
3847 2 265.328000 6.816000 17.104598
3848 2 263.680000 8.309410 17.104598
3849 1 263.680000 9.088000 15.000000
3850 1 265.328000 10.581410 15.000000
3851 2 265.328000 11.360000 17.104598
3852 2 263.680000 12.853410 17.104598
3853 1 263.680000 13.632000 15.000000
3854 1 265.328000 15.125410 15.000000
3855 2 265.328000 15.904000 17.104598
3856 2 263.680000 17.397410 17.104598
3857 1 263.680000 18.176000 15.000000
3858 1 265.328000 19.669410 15.000000
3859 2 265.328000 20.448000 17.104598
3860 2 263.680000 21.941410 17.104598
3861 1 263.680000 22.720000 15.000000
3862 1 265.328000 24.213410 15.000000
3863 2 265.328000 24.992000 17.104598
3864 2 263.680000 26.485410 17.104598
3865 1 263.680000 27.264000 15.000000
3866 1 265.328000 28.757410 15.000000
3867 2 265.328000 29.536000 17.104598
3868 2 263.680000 31.029410 17.104598
3869 1 263.680000 31.808000 15.000000
3870 1 265.328000 33.301410 15.000000
3871 2 265.328000 34.080000 17.104598
3872 2 263.680000 35.573410 17.104598
3873 1 263.680000 36.352000 15.000000
3874 1 265.328000 37.845410 15.000000
3875 2 265.328000 38.624000 17.104598
3876 2 263.680000 40.117410 17.104598
3877 1 263.680000 40.896000 15.000000
3878 1 265.328000 42.389410 15.000000
3879 2 265.328000 43.168000 17.104598
3880 2 263.680000 44.661410 17.104598
3881 1 263.680000 45.440000 15.000000
3882 1 265.328000 46.933410 15.000000
3883 2 265.328000 47.712000 17.104598
3884 2 263.680000 49.205410 17.104598
3885 1 263.680000 49.984000 15.000000
3886 1 265.328000 51.477410 15.000000
3887 2 265.328000 52.256000 17.104598
3888 2 263.680000 53.749410 17.104598
3889 1 266.976000 0.000000 15.000000
3890 1 268.624000 1.493410 15.000000
3891 2 268.624000 2.272000 17.104598
3892 2 266.976000 3.765410 17.104598
3893 1 266.976000 4.544000 15.000000
3894 1 268.624000 6.037410 15.000000
3895 2 268.624000 6.816000 17.104598
3896 2 266.976000 8.309410 17.104598
3897 1 266.976000 9.088000 15.000000
3898 1 268.624000 10.581410 15.000000
3899 2 268.624000 11.360000 17.104598
3900 2 266.976000 12.853410 17.104598
3901 1 266.976000 13.632000 15.000000
3902 1 268.624000 15.125410 15.000000
3903 2 268.624000 15.904000 17.104598
3904 2 266.976000 17.397410 17.104598
3905 1 266.976000 18.176000 15.000000
3906 1 268.624000 19.669410 15.000000
3907 2 268.624000 20.448000 17.104598
3908 2 266.976000 21.941410 17.104598
3909 1 266.976000 22.720000 15.000000
3910 1 268.624000 24.213410 15.000000
3911 2 268.624000 24.992000 17.104598
3912 2 266.976000 26.485410 17.104598
3913 1 266.976000 27.264000 15.000000
3914 1 268.624000 28.757410 15.000000
3915 2 268.624000 29.536000 17.104598
3916 2 266.976000 31.029410 17.104598
3917 1 266.976000 31.808000 15.000000
3918 1 268.624000 33.301410 15.000000
3919 2 268.624000 34.080000 17.104598
3920 2 266.976000 35.573410 17.104598
3921 1 266.976000 36.352000 15.000000
3922 1 268.624000 37.845410 15.000000
3923 2 268.624000 38.624000 17.104598
3924 2 266.976000 40.117410 17.104598
3925 1 266.976000 40.896000 15.000000
3926 1 268.624000 42.389410 15.000000
3927 2 268.624000 43.168000 17.104598
3928 2 266.976000 44.661410 17.104598
3929 1 266.976000 45.440000 15.000000
3930 1 268.624000 46.933410 15.000000
3931 2 268.624000 47.712000 17.104598
3932 2 266.976000 49.205410 17.104598
3933 1 266.976000 49.984000 15.000000
3934 1 268.624000 51.477410 15.000000
3935 2 268.624000 52.256000 17.104598
3936 2 266.976000 53.749410 17.104598
3937 1 270.272000 0.000000 15.000000
3938 1 271.920000 1.493410 15.000000
3939 2 271.920000 2.272000 17.104598
3940 2 270.272000 3.765410 17.104598
3941 1 270.272000 4.544000 15.000000
3942 1 271.920000 6.037410 15.000000
3943 2 271.920000 6.816000 17.104598
3944 2 270.272000 8.309410 17.104598
3945 1 270.272000 9.088000 15.000000
3946 1 271.920000 10.581410 15.000000
3947 2 271.920000 11.360000 17.104598
3948 2 270.272000 12.853410 17.104598
3949 1 270.272000 13.632000 15.000000
3950 1 271.920000 15.125410 15.000000
3951 2 271.920000 15.904000 17.104598
3952 2 270.272000 17.397410 17.104598
3953 1 270.272000 18.176000 15.000000
3954 1 271.920000 19.669410 15.000000
3955 2 271.920000 20.448000 17.104598
3956 2 270.272000 21.941410 17.104598
3957 1 270.272000 22.720000 15.000000
3958 1 271.920000 24.213410 15.000000
3959 2 271.920000 24.992000 17.104598
3960 2 270.272000 26.485410 17.104598
3961 1 270.272000 27.264000 15.000000
3962 1 271.920000 28.757410 15.000000
3963 2 271.920000 29.536000 17.104598
3964 2 270.272000 31.029410 17.104598
3965 1 270.272000 31.808000 15.000000
3966 1 271.920000 33.301410 15.000000
3967 2 271.920000 34.080000 17.104598
3968 2 270.272000 35.573410 17.104598
3969 1 270.272000 36.352000 15.000000
3970 1 271.920000 37.845410 15.000000
3971 2 271.920000 38.624000 17.104598
3972 2 270.272000 40.117410 17.104598
3973 1 270.272000 40.896000 15.000000
3974 1 271.920000 42.389410 15.000000
3975 2 271.920000 43.168000 17.104598
3976 2 270.272000 44.661410 17.104598
3977 1 270.272000 45.440000 15.000000
3978 1 271.920000 46.933410 15.000000
3979 2 271.920000 47.712000 17.104598
3980 2 270.272000 49.205410 17.104598
3981 1 270.272000 49.984000 15.000000
3982 1 271.920000 51.477410 15.000000
3983 2 271.920000 52.256000 17.104598
3984 2 270.272000 53.749410 17.104598
3985 1 273.568000 0.000000 15.000000
3986 1 275.216000 1.493410 15.000000
3987 2 275.216000 2.272000 17.104598
3988 2 273.568000 3.765410 17.104598
3989 1 273.568000 4.544000 15.000000
3990 1 275.216000 6.037410 15.000000
3991 2 275.216000 6.816000 17.104598
3992 2 273.568000 8.309410 17.104598
3993 1 273.568000 9.088000 15.000000
3994 1 275.216000 10.581410 15.000000
3995 2 275.216000 11.360000 17.104598
3996 2 273.568000 12.853410 17.104598
3997 1 273.568000 13.632000 15.000000
3998 1 275.216000 15.125410 15.000000
3999 2 275.216000 15.904000 17.104598
4000 2 273.568000 17.397410 17.104598
4001 1 273.568000 18.176000 15.000000
4002 1 275.216000 19.669410 15.000000
4003 2 275.216000 20.448000 17.104598
4004 2 273.568000 21.941410 17.104598
4005 1 273.568000 22.720000 15.000000
4006 1 275.216000 24.213410 15.000000
4007 2 275.216000 24.992000 17.104598
4008 2 273.568000 26.485410 17.104598
4009 1 273.568000 27.264000 15.000000
4010 1 275.216000 28.757410 15.000000
4011 2 275.216000 29.536000 17.104598
4012 2 273.568000 31.029410 17.104598
4013 1 273.568000 31.808000 15.000000
4014 1 275.216000 33.301410 15.000000
4015 2 275.216000 34.080000 17.104598
4016 2 273.568000 35.573410 17.104598
4017 1 273.568000 36.352000 15.000000
4018 1 275.216000 37.845410 15.000000
4019 2 275.216000 38.624000 17.104598
4020 2 273.568000 40.117410 17.104598
4021 1 273.568000 40.896000 15.000000
4022 1 275.216000 42.389410 15.000000
4023 2 275.216000 43.168000 17.104598
4024 2 273.568000 44.661410 17.104598
4025 1 273.568000 45.440000 15.000000
4026 1 275.216000 46.933410 15.000000
4027 2 275.216000 47.712000 17.104598
4028 2 273.568000 49.205410 17.104598
4029 1 273.568000 49.984000 15.000000
4030 1 275.216000 51.477410 15.000000
4031 2 275.216000 52.256000 17.104598
4032 2 273.568000 53.749410 17.104598
4033 1 276.864000 0.000000 15.000000
4034 1 278.512000 1.493410 15.000000
4035 2 278.512000 2.272000 17.104598
4036 2 276.864000 3.765410 17.104598
4037 1 276.864000 4.544000 15.000000
4038 1 278.512000 6.037410 15.000000
4039 2 278.512000 6.816000 17.104598
4040 2 276.864000 8.309410 17.104598
4041 1 276.864000 9.088000 15.000000
4042 1 278.512000 10.581410 15.000000
4043 2 278.512000 11.360000 17.104598
4044 2 276.864000 12.853410 17.104598
4045 1 276.864000 13.632000 15.000000
4046 1 278.512000 15.125410 15.000000
4047 2 278.512000 15.904000 17.104598
4048 2 276.864000 17.397410 17.104598
4049 1 276.864000 18.176000 15.000000
4050 1 278.512000 19.669410 15.000000
4051 2 278.512000 20.448000 17.104598
4052 2 276.864000 21.941410 17.104598
4053 1 276.864000 22.720000 15.000000
4054 1 278.512000 24.213410 15.000000
4055 2 278.512000 24.992000 17.104598
4056 2 276.864000 26.485410 17.104598
4057 1 276.864000 27.264000 15.000000
4058 1 278.512000 28.757410 15.000000
4059 2 278.512000 29.536000 17.104598
4060 2 276.864000 31.029410 17.104598
4061 1 276.864000 31.808000 15.000000
4062 1 278.512000 33.301410 15.000000
4063 2 278.512000 34.080000 17.104598
4064 2 276.864000 35.573410 17.104598
4065 1 276.864000 36.352000 15.000000
4066 1 278.512000 37.845410 15.000000
4067 2 278.512000 38.624000 17.104598
4068 2 276.864000 40.117410 17.104598
4069 1 276.864000 40.896000 15.000000
4070 1 278.512000 42.389410 15.000000
4071 2 278.512000 43.168000 17.104598
4072 2 276.864000 44.661410 17.104598
4073 1 276.864000 45.440000 15.000000
4074 1 278.512000 46.933410 15.000000
4075 2 278.512000 47.712000 17.104598
4076 2 276.864000 49.205410 17.104598
4077 1 276.864000 49.984000 15.000000
4078 1 278.512000 51.477410 15.000000
4079 2 278.512000 52.256000 17.104598
4080 2 276.864000 53.749410 17.104598
4081 1 280.160000 0.000000 15.000000
4082 1 281.808000 1.493410 15.000000
4083 2 281.808000 2.272000 17.104598
4084 2 280.160000 3.765410 17.104598
4085 1 280.160000 4.544000 15.000000
4086 1 281.808000 6.037410 15.000000
4087 2 281.808000 6.816000 17.104598
4088 2 280.160000 8.309410 17.104598
4089 1 280.160000 9.088000 15.000000
4090 1 281.808000 10.581410 15.000000
4091 2 281.808000 11.360000 17.104598
4092 2 280.160000 12.853410 17.104598
4093 1 280.160000 13.632000 15.000000
4094 1 281.808000 15.125410 15.000000
4095 2 281.808000 15.904000 17.104598
4096 2 280.160000 17.397410 17.104598
4097 1 280.160000 18.176000 15.000000
4098 1 281.808000 19.669410 15.000000
4099 2 281.808000 20.448000 17.104598
4100 2 280.160000 21.941410 17.104598
4101 1 280.160000 22.720000 15.000000
4102 1 281.808000 24.213410 15.000000
4103 2 281.808000 24.992000 17.104598
4104 2 280.160000 26.485410 17.104598
4105 1 280.160000 27.264000 15.000000
4106 1 281.808000 28.757410 15.000000
4107 2 281.808000 29.536000 17.104598
4108 2 280.160000 31.029410 17.104598
4109 1 280.160000 31.808000 15.000000
4110 1 281.808000 33.301410 15.000000
4111 2 281.808000 34.080000 17.104598
4112 2 280.160000 35.573410 17.104598
4113 1 280.160000 36.352000 15.000000
4114 1 281.808000 37.845410 15.000000
4115 2 281.808000 38.624000 17.104598
4116 2 280.160000 40.117410 17.104598
4117 1 280.160000 40.896000 15.000000
4118 1 281.808000 42.389410 15.000000
4119 2 281.808000 43.168000 17.104598
4120 2 280.160000 44.661410 17.104598
4121 1 280.160000 45.440000 15.000000
4122 1 281.808000 46.933410 15.000000
4123 2 281.808000 47.712000 17.104598
4124 2 280.160000 49.205410 17.104598
4125 1 280.160000 49.984000 15.000000
4126 1 281.808000 51.477410 15.000000
4127 2 281.808000 52.256000 17.104598
4128 2 280.160000 53.749410 17.104598
4129 1 283.456000 0.000000 15.000000
4130 1 285.104000 1.493410 15.000000
4131 2 285.104000 2.272000 17.104598
4132 2 283.456000 3.765410 17.104598
4133 1 283.456000 4.544000 15.000000
4134 1 285.104000 6.037410 15.000000
4135 2 285.104000 6.816000 17.104598
4136 2 283.456000 8.309410 17.104598
4137 1 283.456000 9.088000 15.000000
4138 1 285.104000 10.581410 15.000000
4139 2 285.104000 11.360000 17.104598
4140 2 283.456000 12.853410 17.104598
4141 1 283.456000 13.632000 15.000000
4142 1 285.104000 15.125410 15.000000
4143 2 285.104000 15.904000 17.104598
4144 2 283.456000 17.397410 17.104598
4145 1 283.456000 18.176000 15.000000
4146 1 285.104000 19.669410 15.000000
4147 2 285.104000 20.448000 17.104598
4148 2 283.456000 21.941410 17.104598
4149 1 283.456000 22.720000 15.000000
4150 1 285.104000 24.213410 15.000000
4151 2 285.104000 24.992000 17.104598
4152 2 283.456000 26.485410 17.104598
4153 1 283.456000 27.264000 15.000000
4154 1 285.104000 28.757410 15.000000
4155 2 285.104000 29.536000 17.104598
4156 2 283.456000 31.029410 17.104598
4157 1 283.456000 31.808000 15.000000
4158 1 285.104000 33.301410 15.000000
4159 2 285.104000 34.080000 17.104598
4160 2 283.456000 35.573410 17.104598
4161 1 283.456000 36.352000 15.000000
4162 1 285.104000 37.845410 15.000000
4163 2 285.104000 38.624000 17.104598
4164 2 283.456000 40.117410 17.104598
4165 1 283.456000 40.896000 15.000000
4166 1 285.104000 42.389410 15.000000
4167 2 285.104000 43.168000 17.104598
4168 2 283.456000 44.661410 17.104598
4169 1 283.456000 45.440000 15.000000
4170 1 285.104000 46.933410 15.000000
4171 2 285.104000 47.712000 17.104598
4172 2 283.456000 49.205410 17.104598
4173 1 283.456000 49.984000 15.000000
4174 1 285.104000 51.477410 15.000000
4175 2 285.104000 52.256000 17.104598
4176 2 283.456000 53.749410 17.104598
4177 1 286.752000 0.000000 15.000000
4178 1 288.400000 1.493410 15.000000
4179 2 288.400000 2.272000 17.104598
4180 2 286.752000 3.765410 17.104598
4181 1 286.752000 4.544000 15.000000
4182 1 288.400000 6.037410 15.000000
4183 2 288.400000 6.816000 17.104598
4184 2 286.752000 8.309410 17.104598
4185 1 286.752000 9.088000 15.000000
4186 1 288.400000 10.581410 15.000000
4187 2 288.400000 11.360000 17.104598
4188 2 286.752000 12.853410 17.104598
4189 1 286.752000 13.632000 15.000000
4190 1 288.400000 15.125410 15.000000
4191 2 288.400000 15.904000 17.104598
4192 2 286.752000 17.397410 17.104598
4193 1 286.752000 18.176000 15.000000
4194 1 288.400000 19.669410 15.000000
4195 2 288.400000 20.448000 17.104598
4196 2 286.752000 21.941410 17.104598
4197 1 286.752000 22.720000 15.000000
4198 1 288.400000 24.213410 15.000000
4199 2 288.400000 24.992000 17.104598
4200 2 286.752000 26.485410 17.104598
4201 1 286.752000 27.264000 15.000000
4202 1 288.400000 28.757410 15.000000
4203 2 288.400000 29.536000 17.104598
4204 2 286.752000 31.029410 17.104598
4205 1 286.752000 31.808000 15.000000
4206 1 288.400000 33.301410 15.000000
4207 2 288.400000 34.080000 17.104598
4208 2 286.752000 35.573410 17.104598
4209 1 286.752000 36.352000 15.000000
4210 1 288.400000 37.845410 15.000000
4211 2 288.400000 38.624000 17.104598
4212 2 286.752000 40.117410 17.104598
4213 1 286.752000 40.896000 15.000000
4214 1 288.400000 42.389410 15.000000
4215 2 288.400000 43.168000 17.104598
4216 2 286.752000 44.661410 17.104598
4217 1 286.752000 45.440000 15.000000
4218 1 288.400000 46.933410 15.000000
4219 2 288.400000 47.712000 17.104598
4220 2 286.752000 49.205410 17.104598
4221 1 286.752000 49.984000 15.000000
4222 1 288.400000 51.477410 15.000000
4223 2 288.400000 52.256000 17.104598
4224 2 286.752000 53.749410 17.104598
4225 1 290.048000 0.000000 15.000000
4226 1 291.696000 1.493410 15.000000
4227 2 291.696000 2.272000 17.104598
4228 2 290.048000 3.765410 17.104598
4229 1 290.048000 4.544000 15.000000
4230 1 291.696000 6.037410 15.000000
4231 2 291.696000 6.816000 17.104598
4232 2 290.048000 8.309410 17.104598
4233 1 290.048000 9.088000 15.000000
4234 1 291.696000 10.581410 15.000000
4235 2 291.696000 11.360000 17.104598
4236 2 290.048000 12.853410 17.104598
4237 1 290.048000 13.632000 15.000000
4238 1 291.696000 15.125410 15.000000
4239 2 291.696000 15.904000 17.104598
4240 2 290.048000 17.397410 17.104598
4241 1 290.048000 18.176000 15.000000
4242 1 291.696000 19.669410 15.000000
4243 2 291.696000 20.448000 17.104598
4244 2 290.048000 21.941410 17.104598
4245 1 290.048000 22.720000 15.000000
4246 1 291.696000 24.213410 15.000000
4247 2 291.696000 24.992000 17.104598
4248 2 290.048000 26.485410 17.104598
4249 1 290.048000 27.264000 15.000000
4250 1 291.696000 28.757410 15.000000
4251 2 291.696000 29.536000 17.104598
4252 2 290.048000 31.029410 17.104598
4253 1 290.048000 31.808000 15.000000
4254 1 291.696000 33.301410 15.000000
4255 2 291.696000 34.080000 17.104598
4256 2 290.048000 35.573410 17.104598
4257 1 290.048000 36.352000 15.000000
4258 1 291.696000 37.845410 15.000000
4259 2 291.696000 38.624000 17.104598
4260 2 290.048000 40.117410 17.104598
4261 1 290.048000 40.896000 15.000000
4262 1 291.696000 42.389410 15.000000
4263 2 291.696000 43.168000 17.104598
4264 2 290.048000 44.661410 17.104598
4265 1 290.048000 45.440000 15.000000
4266 1 291.696000 46.933410 15.000000
4267 2 291.696000 47.712000 17.104598
4268 2 290.048000 49.205410 17.104598
4269 1 290.048000 49.984000 15.000000
4270 1 291.696000 51.477410 15.000000
4271 2 291.696000 52.256000 17.104598
4272 2 290.048000 53.749410 17.104598
4273 1 293.344000 0.000000 15.000000
4274 1 294.992000 1.493410 15.000000
4275 2 294.992000 2.272000 17.104598
4276 2 293.344000 3.765410 17.104598
4277 1 293.344000 4.544000 15.000000
4278 1 294.992000 6.037410 15.000000
4279 2 294.992000 6.816000 17.104598
4280 2 293.344000 8.309410 17.104598
4281 1 293.344000 9.088000 15.000000
4282 1 294.992000 10.581410 15.000000
4283 2 294.992000 11.360000 17.104598
4284 2 293.344000 12.853410 17.104598
4285 1 293.344000 13.632000 15.000000
4286 1 294.992000 15.125410 15.000000
4287 2 294.992000 15.904000 17.104598
4288 2 293.344000 17.397410 17.104598
4289 1 293.344000 18.176000 15.000000
4290 1 294.992000 19.669410 15.000000
4291 2 294.992000 20.448000 17.104598
4292 2 293.344000 21.941410 17.104598
4293 1 293.344000 22.720000 15.000000
4294 1 294.992000 24.213410 15.000000
4295 2 294.992000 24.992000 17.104598
4296 2 293.344000 26.485410 17.104598
4297 1 293.344000 27.264000 15.000000
4298 1 294.992000 28.757410 15.000000
4299 2 294.992000 29.536000 17.104598
4300 2 293.344000 31.029410 17.104598
4301 1 293.344000 31.808000 15.000000
4302 1 294.992000 33.301410 15.000000
4303 2 294.992000 34.080000 17.104598
4304 2 293.344000 35.573410 17.104598
4305 1 293.344000 36.352000 15.000000
4306 1 294.992000 37.845410 15.000000
4307 2 294.992000 38.624000 17.104598
4308 2 293.344000 40.117410 17.104598
4309 1 293.344000 40.896000 15.000000
4310 1 294.992000 42.389410 15.000000
4311 2 294.992000 43.168000 17.104598
4312 2 293.344000 44.661410 17.104598
4313 1 293.344000 45.440000 15.000000
4314 1 294.992000 46.933410 15.000000
4315 2 294.992000 47.712000 17.104598
4316 2 293.344000 49.205410 17.104598
4317 1 293.344000 49.984000 15.000000
4318 1 294.992000 51.477410 15.000000
4319 2 294.992000 52.256000 17.104598
4320 2 293.344000 53.749410 17.104598
4321 1 296.640000 0.000000 15.000000
4322 1 298.288000 1.493410 15.000000
4323 2 298.288000 2.272000 17.104598
4324 2 296.640000 3.765410 17.104598
4325 1 296.640000 4.544000 15.000000
4326 1 298.288000 6.037410 15.000000
4327 2 298.288000 6.816000 17.104598
4328 2 296.640000 8.309410 17.104598
4329 1 296.640000 9.088000 15.000000
4330 1 298.288000 10.581410 15.000000
4331 2 298.288000 11.360000 17.104598
4332 2 296.640000 12.853410 17.104598
4333 1 296.640000 13.632000 15.000000
4334 1 298.288000 15.125410 15.000000
4335 2 298.288000 15.904000 17.104598
4336 2 296.640000 17.397410 17.104598
4337 1 296.640000 18.176000 15.000000
4338 1 298.288000 19.669410 15.000000
4339 2 298.288000 20.448000 17.104598
4340 2 296.640000 21.941410 17.104598
4341 1 296.640000 22.720000 15.000000
4342 1 298.288000 24.213410 15.000000
4343 2 298.288000 24.992000 17.104598
4344 2 296.640000 26.485410 17.104598
4345 1 296.640000 27.264000 15.000000
4346 1 298.288000 28.757410 15.000000
4347 2 298.288000 29.536000 17.104598
4348 2 296.640000 31.029410 17.104598
4349 1 296.640000 31.808000 15.000000
4350 1 298.288000 33.301410 15.000000
4351 2 298.288000 34.080000 17.104598
4352 2 296.640000 35.573410 17.104598
4353 1 296.640000 36.352000 15.000000
4354 1 298.288000 37.845410 15.000000
4355 2 298.288000 38.624000 17.104598
4356 2 296.640000 40.117410 17.104598
4357 1 296.640000 40.896000 15.000000
4358 1 298.288000 42.389410 15.000000
4359 2 298.288000 43.168000 17.104598
4360 2 296.640000 44.661410 17.104598
4361 1 296.640000 45.440000 15.000000
4362 1 298.288000 46.933410 15.000000
4363 2 298.288000 47.712000 17.104598
4364 2 296.640000 49.205410 17.104598
4365 1 296.640000 49.984000 15.000000
4366 1 298.288000 51.477410 15.000000
4367 2 298.288000 52.256000 17.104598
4368 2 296.640000 53.749410 17.104598
