Monolayer black phosphorus (type1=B bottom pucker, type2=T top pucker)

1632 atoms
2 atom types

0.0 224.128000 xlo xhi
0.0 27.264000 ylo yhi
0.0 32.104598 zlo zhi

Masses

1 30.973762
2 30.973762

Atoms # atomic

1 1 0.000000 0.000000 15.000000
2 1 1.648000 1.493410 15.000000
3 2 1.648000 2.272000 17.104598
4 2 0.000000 3.765410 17.104598
5 1 0.000000 4.544000 15.000000
6 1 1.648000 6.037410 15.000000
7 2 1.648000 6.816000 17.104598
8 2 0.000000 8.309410 17.104598
9 1 0.000000 9.088000 15.000000
10 1 1.648000 10.581410 15.000000
11 2 1.648000 11.360000 17.104598
12 2 0.000000 12.853410 17.104598
13 1 0.000000 13.632000 15.000000
14 1 1.648000 15.125410 15.000000
15 2 1.648000 15.904000 17.104598
16 2 0.000000 17.397410 17.104598
17 1 0.000000 18.176000 15.000000
18 1 1.648000 19.669410 15.000000
19 2 1.648000 20.448000 17.104598
20 2 0.000000 21.941410 17.104598
21 1 0.000000 22.720000 15.000000
22 1 1.648000 24.213410 15.000000
23 2 1.648000 24.992000 17.104598
24 2 0.000000 26.485410 17.104598
25 1 3.296000 0.000000 15.000000
26 1 4.944000 1.493410 15.000000
27 2 4.944000 2.272000 17.104598
28 2 3.296000 3.765410 17.104598
29 1 3.296000 4.544000 15.000000
30 1 4.944000 6.037410 15.000000
31 2 4.944000 6.816000 17.104598
32 2 3.296000 8.309410 17.104598
33 1 3.296000 9.088000 15.000000
34 1 4.944000 10.581410 15.000000
35 2 4.944000 11.360000 17.104598
36 2 3.296000 12.853410 17.104598
37 1 3.296000 13.632000 15.000000
38 1 4.944000 15.125410 15.000000
39 2 4.944000 15.904000 17.104598
40 2 3.296000 17.397410 17.104598
41 1 3.296000 18.176000 15.000000
42 1 4.944000 19.669410 15.000000
43 2 4.944000 20.448000 17.104598
44 2 3.296000 21.941410 17.104598
45 1 3.296000 22.720000 15.000000
46 1 4.944000 24.213410 15.000000
47 2 4.944000 24.992000 17.104598
48 2 3.296000 26.485410 17.104598
49 1 6.592000 0.000000 15.000000
50 1 8.240000 1.493410 15.000000
51 2 8.240000 2.272000 17.104598
52 2 6.592000 3.765410 17.104598
53 1 6.592000 4.544000 15.000000
54 1 8.240000 6.037410 15.000000
55 2 8.240000 6.816000 17.104598
56 2 6.592000 8.309410 17.104598
57 1 6.592000 9.088000 15.000000
58 1 8.240000 10.581410 15.000000
59 2 8.240000 11.360000 17.104598
60 2 6.592000 12.853410 17.104598
61 1 6.592000 13.632000 15.000000
62 1 8.240000 15.125410 15.000000
63 2 8.240000 15.904000 17.104598
64 2 6.592000 17.397410 17.104598
65 1 6.592000 18.176000 15.000000
66 1 8.240000 19.669410 15.000000
67 2 8.240000 20.448000 17.104598
68 2 6.592000 21.941410 17.104598
69 1 6.592000 22.720000 15.000000
70 1 8.240000 24.213410 15.000000
71 2 8.240000 24.992000 17.104598
72 2 6.592000 26.485410 17.104598
73 1 9.888000 0.000000 15.000000
74 1 11.536000 1.493410 15.000000
75 2 11.536000 2.272000 17.104598
76 2 9.888000 3.765410 17.104598
77 1 9.888000 4.544000 15.000000
78 1 11.536000 6.037410 15.000000
79 2 11.536000 6.816000 17.104598
80 2 9.888000 8.309410 17.104598
81 1 9.888000 9.088000 15.000000
82 1 11.536000 10.581410 15.000000
83 2 11.536000 11.360000 17.104598
84 2 9.888000 12.853410 17.104598
85 1 9.888000 13.632000 15.000000
86 1 11.536000 15.125410 15.000000
87 2 11.536000 15.904000 17.104598
88 2 9.888000 17.397410 17.104598
89 1 9.888000 18.176000 15.000000
90 1 11.536000 19.669410 15.000000
91 2 11.536000 20.448000 17.104598
92 2 9.888000 21.941410 17.104598
93 1 9.888000 22.720000 15.000000
94 1 11.536000 24.213410 15.000000
95 2 11.536000 24.992000 17.104598
96 2 9.888000 26.485410 17.104598
97 1 13.184000 0.000000 15.000000
98 1 14.832000 1.493410 15.000000
99 2 14.832000 2.272000 17.104598
100 2 13.184000 3.765410 17.104598
101 1 13.184000 4.544000 15.000000
102 1 14.832000 6.037410 15.000000
103 2 14.832000 6.816000 17.104598
104 2 13.184000 8.309410 17.104598
105 1 13.184000 9.088000 15.000000
106 1 14.832000 10.581410 15.000000
107 2 14.832000 11.360000 17.104598
108 2 13.184000 12.853410 17.104598
109 1 13.184000 13.632000 15.000000
110 1 14.832000 15.125410 15.000000
111 2 14.832000 15.904000 17.104598
112 2 13.184000 17.397410 17.104598
113 1 13.184000 18.176000 15.000000
114 1 14.832000 19.669410 15.000000
115 2 14.832000 20.448000 17.104598
116 2 13.184000 21.941410 17.104598
117 1 13.184000 22.720000 15.000000
118 1 14.832000 24.213410 15.000000
119 2 14.832000 24.992000 17.104598
120 2 13.184000 26.485410 17.104598
121 1 16.480000 0.000000 15.000000
122 1 18.128000 1.493410 15.000000
123 2 18.128000 2.272000 17.104598
124 2 16.480000 3.765410 17.104598
125 1 16.480000 4.544000 15.000000
126 1 18.128000 6.037410 15.000000
127 2 18.128000 6.816000 17.104598
128 2 16.480000 8.309410 17.104598
129 1 16.480000 9.088000 15.000000
130 1 18.128000 10.581410 15.000000
131 2 18.128000 11.360000 17.104598
132 2 16.480000 12.853410 17.104598
133 1 16.480000 13.632000 15.000000
134 1 18.128000 15.125410 15.000000
135 2 18.128000 15.904000 17.104598
136 2 16.480000 17.397410 17.104598
137 1 16.480000 18.176000 15.000000
138 1 18.128000 19.669410 15.000000
139 2 18.128000 20.448000 17.104598
140 2 16.480000 21.941410 17.104598
141 1 16.480000 22.720000 15.000000
142 1 18.128000 24.213410 15.000000
143 2 18.128000 24.992000 17.104598
144 2 16.480000 26.485410 17.104598
145 1 19.776000 0.000000 15.000000
146 1 21.424000 1.493410 15.000000
147 2 21.424000 2.272000 17.104598
148 2 19.776000 3.765410 17.104598
149 1 19.776000 4.544000 15.000000
150 1 21.424000 6.037410 15.000000
151 2 21.424000 6.816000 17.104598
152 2 19.776000 8.309410 17.104598
153 1 19.776000 9.088000 15.000000
154 1 21.424000 10.581410 15.000000
155 2 21.424000 11.360000 17.104598
156 2 19.776000 12.853410 17.104598
157 1 19.776000 13.632000 15.000000
158 1 21.424000 15.125410 15.000000
159 2 21.424000 15.904000 17.104598
160 2 19.776000 17.397410 17.104598
161 1 19.776000 18.176000 15.000000
162 1 21.424000 19.669410 15.000000
163 2 21.424000 20.448000 17.104598
164 2 19.776000 21.941410 17.104598
165 1 19.776000 22.720000 15.000000
166 1 21.424000 24.213410 15.000000
167 2 21.424000 24.992000 17.104598
168 2 19.776000 26.485410 17.104598
169 1 23.072000 0.000000 15.000000
170 1 24.720000 1.493410 15.000000
171 2 24.720000 2.272000 17.104598
172 2 23.072000 3.765410 17.104598
173 1 23.072000 4.544000 15.000000
174 1 24.720000 6.037410 15.000000
175 2 24.720000 6.816000 17.104598
176 2 23.072000 8.309410 17.104598
177 1 23.072000 9.088000 15.000000
178 1 24.720000 10.581410 15.000000
179 2 24.720000 11.360000 17.104598
180 2 23.072000 12.853410 17.104598
181 1 23.072000 13.632000 15.000000
182 1 24.720000 15.125410 15.000000
183 2 24.720000 15.904000 17.104598
184 2 23.072000 17.397410 17.104598
185 1 23.072000 18.176000 15.000000
186 1 24.720000 19.669410 15.000000
187 2 24.720000 20.448000 17.104598
188 2 23.072000 21.941410 17.104598
189 1 23.072000 22.720000 15.000000
190 1 24.720000 24.213410 15.000000
191 2 24.720000 24.992000 17.104598
192 2 23.072000 26.485410 17.104598
193 1 26.368000 0.000000 15.000000
194 1 28.016000 1.493410 15.000000
195 2 28.016000 2.272000 17.104598
196 2 26.368000 3.765410 17.104598
197 1 26.368000 4.544000 15.000000
198 1 28.016000 6.037410 15.000000
199 2 28.016000 6.816000 17.104598
200 2 26.368000 8.309410 17.104598
201 1 26.368000 9.088000 15.000000
202 1 28.016000 10.581410 15.000000
203 2 28.016000 11.360000 17.104598
204 2 26.368000 12.853410 17.104598
205 1 26.368000 13.632000 15.000000
206 1 28.016000 15.125410 15.000000
207 2 28.016000 15.904000 17.104598
208 2 26.368000 17.397410 17.104598
209 1 26.368000 18.176000 15.000000
210 1 28.016000 19.669410 15.000000
211 2 28.016000 20.448000 17.104598
212 2 26.368000 21.941410 17.104598
213 1 26.368000 22.720000 15.000000
214 1 28.016000 24.213410 15.000000
215 2 28.016000 24.992000 17.104598
216 2 26.368000 26.485410 17.104598
217 1 29.664000 0.000000 15.000000
218 1 31.312000 1.493410 15.000000
219 2 31.312000 2.272000 17.104598
220 2 29.664000 3.765410 17.104598
221 1 29.664000 4.544000 15.000000
222 1 31.312000 6.037410 15.000000
223 2 31.312000 6.816000 17.104598
224 2 29.664000 8.309410 17.104598
225 1 29.664000 9.088000 15.000000
226 1 31.312000 10.581410 15.000000
227 2 31.312000 11.360000 17.104598
228 2 29.664000 12.853410 17.104598
229 1 29.664000 13.632000 15.000000
230 1 31.312000 15.125410 15.000000
231 2 31.312000 15.904000 17.104598
232 2 29.664000 17.397410 17.104598
233 1 29.664000 18.176000 15.000000
234 1 31.312000 19.669410 15.000000
235 2 31.312000 20.448000 17.104598
236 2 29.664000 21.941410 17.104598
237 1 29.664000 22.720000 15.000000
238 1 31.312000 24.213410 15.000000
239 2 31.312000 24.992000 17.104598
240 2 29.664000 26.485410 17.104598
241 1 32.960000 0.000000 15.000000
242 1 34.608000 1.493410 15.000000
243 2 34.608000 2.272000 17.104598
244 2 32.960000 3.765410 17.104598
245 1 32.960000 4.544000 15.000000
246 1 34.608000 6.037410 15.000000
247 2 34.608000 6.816000 17.104598
248 2 32.960000 8.309410 17.104598
249 1 32.960000 9.088000 15.000000
250 1 34.608000 10.581410 15.000000
251 2 34.608000 11.360000 17.104598
252 2 32.960000 12.853410 17.104598
253 1 32.960000 13.632000 15.000000
254 1 34.608000 15.125410 15.000000
255 2 34.608000 15.904000 17.104598
256 2 32.960000 17.397410 17.104598
257 1 32.960000 18.176000 15.000000
258 1 34.608000 19.669410 15.000000
259 2 34.608000 20.448000 17.104598
260 2 32.960000 21.941410 17.104598
261 1 32.960000 22.720000 15.000000
262 1 34.608000 24.213410 15.000000
263 2 34.608000 24.992000 17.104598
264 2 32.960000 26.485410 17.104598
265 1 36.256000 0.000000 15.000000
266 1 37.904000 1.493410 15.000000
267 2 37.904000 2.272000 17.104598
268 2 36.256000 3.765410 17.104598
269 1 36.256000 4.544000 15.000000
270 1 37.904000 6.037410 15.000000
271 2 37.904000 6.816000 17.104598
272 2 36.256000 8.309410 17.104598
273 1 36.256000 9.088000 15.000000
274 1 37.904000 10.581410 15.000000
275 2 37.904000 11.360000 17.104598
276 2 36.256000 12.853410 17.104598
277 1 36.256000 13.632000 15.000000
278 1 37.904000 15.125410 15.000000
279 2 37.904000 15.904000 17.104598
280 2 36.256000 17.397410 17.104598
281 1 36.256000 18.176000 15.000000
282 1 37.904000 19.669410 15.000000
283 2 37.904000 20.448000 17.104598
284 2 36.256000 21.941410 17.104598
285 1 36.256000 22.720000 15.000000
286 1 37.904000 24.213410 15.000000
287 2 37.904000 24.992000 17.104598
288 2 36.256000 26.485410 17.104598
289 1 39.552000 0.000000 15.000000
290 1 41.200000 1.493410 15.000000
291 2 41.200000 2.272000 17.104598
292 2 39.552000 3.765410 17.104598
293 1 39.552000 4.544000 15.000000
294 1 41.200000 6.037410 15.000000
295 2 41.200000 6.816000 17.104598
296 2 39.552000 8.309410 17.104598
297 1 39.552000 9.088000 15.000000
298 1 41.200000 10.581410 15.000000
299 2 41.200000 11.360000 17.104598
300 2 39.552000 12.853410 17.104598
301 1 39.552000 13.632000 15.000000
302 1 41.200000 15.125410 15.000000
303 2 41.200000 15.904000 17.104598
304 2 39.552000 17.397410 17.104598
305 1 39.552000 18.176000 15.000000
306 1 41.200000 19.669410 15.000000
307 2 41.200000 20.448000 17.104598
308 2 39.552000 21.941410 17.104598
309 1 39.552000 22.720000 15.000000
310 1 41.200000 24.213410 15.000000
311 2 41.200000 24.992000 17.104598
312 2 39.552000 26.485410 17.104598
313 1 42.848000 0.000000 15.000000
314 1 44.496000 1.493410 15.000000
315 2 44.496000 2.272000 17.104598
316 2 42.848000 3.765410 17.104598
317 1 42.848000 4.544000 15.000000
318 1 44.496000 6.037410 15.000000
319 2 44.496000 6.816000 17.104598
320 2 42.848000 8.309410 17.104598
321 1 42.848000 9.088000 15.000000
322 1 44.496000 10.581410 15.000000
323 2 44.496000 11.360000 17.104598
324 2 42.848000 12.853410 17.104598
325 1 42.848000 13.632000 15.000000
326 1 44.496000 15.125410 15.000000
327 2 44.496000 15.904000 17.104598
328 2 42.848000 17.397410 17.104598
329 1 42.848000 18.176000 15.000000
330 1 44.496000 19.669410 15.000000
331 2 44.496000 20.448000 17.104598
332 2 42.848000 21.941410 17.104598
333 1 42.848000 22.720000 15.000000
334 1 44.496000 24.213410 15.000000
335 2 44.496000 24.992000 17.104598
336 2 42.848000 26.485410 17.104598
337 1 46.144000 0.000000 15.000000
338 1 47.792000 1.493410 15.000000
339 2 47.792000 2.272000 17.104598
340 2 46.144000 3.765410 17.104598
341 1 46.144000 4.544000 15.000000
342 1 47.792000 6.037410 15.000000
343 2 47.792000 6.816000 17.104598
344 2 46.144000 8.309410 17.104598
345 1 46.144000 9.088000 15.000000
346 1 47.792000 10.581410 15.000000
347 2 47.792000 11.360000 17.104598
348 2 46.144000 12.853410 17.104598
349 1 46.144000 13.632000 15.000000
350 1 47.792000 15.125410 15.000000
351 2 47.792000 15.904000 17.104598
352 2 46.144000 17.397410 17.104598
353 1 46.144000 18.176000 15.000000
354 1 47.792000 19.669410 15.000000
355 2 47.792000 20.448000 17.104598
356 2 46.144000 21.941410 17.104598
357 1 46.144000 22.720000 15.000000
358 1 47.792000 24.213410 15.000000
359 2 47.792000 24.992000 17.104598
360 2 46.144000 26.485410 17.104598
361 1 49.440000 0.000000 15.000000
362 1 51.088000 1.493410 15.000000
363 2 51.088000 2.272000 17.104598
364 2 49.440000 3.765410 17.104598
365 1 49.440000 4.544000 15.000000
366 1 51.088000 6.037410 15.000000
367 2 51.088000 6.816000 17.104598
368 2 49.440000 8.309410 17.104598
369 1 49.440000 9.088000 15.000000
370 1 51.088000 10.581410 15.000000
371 2 51.088000 11.360000 17.104598
372 2 49.440000 12.853410 17.104598
373 1 49.440000 13.632000 15.000000
374 1 51.088000 15.125410 15.000000
375 2 51.088000 15.904000 17.104598
376 2 49.440000 17.397410 17.104598
377 1 49.440000 18.176000 15.000000
378 1 51.088000 19.669410 15.000000
379 2 51.088000 20.448000 17.104598
380 2 49.440000 21.941410 17.104598
381 1 49.440000 22.720000 15.000000
382 1 51.088000 24.213410 15.000000
383 2 51.088000 24.992000 17.104598
384 2 49.440000 26.485410 17.104598
385 1 52.736000 0.000000 15.000000
386 1 54.384000 1.493410 15.000000
387 2 54.384000 2.272000 17.104598
388 2 52.736000 3.765410 17.104598
389 1 52.736000 4.544000 15.000000
390 1 54.384000 6.037410 15.000000
391 2 54.384000 6.816000 17.104598
392 2 52.736000 8.309410 17.104598
393 1 52.736000 9.088000 15.000000
394 1 54.384000 10.581410 15.000000
395 2 54.384000 11.360000 17.104598
396 2 52.736000 12.853410 17.104598
397 1 52.736000 13.632000 15.000000
398 1 54.384000 15.125410 15.000000
399 2 54.384000 15.904000 17.104598
400 2 52.736000 17.397410 17.104598
401 1 52.736000 18.176000 15.000000
402 1 54.384000 19.669410 15.000000
403 2 54.384000 20.448000 17.104598
404 2 52.736000 21.941410 17.104598
405 1 52.736000 22.720000 15.000000
406 1 54.384000 24.213410 15.000000
407 2 54.384000 24.992000 17.104598
408 2 52.736000 26.485410 17.104598
409 1 56.032000 0.000000 15.000000
410 1 57.680000 1.493410 15.000000
411 2 57.680000 2.272000 17.104598
412 2 56.032000 3.765410 17.104598
413 1 56.032000 4.544000 15.000000
414 1 57.680000 6.037410 15.000000
415 2 57.680000 6.816000 17.104598
416 2 56.032000 8.309410 17.104598
417 1 56.032000 9.088000 15.000000
418 1 57.680000 10.581410 15.000000
419 2 57.680000 11.360000 17.104598
420 2 56.032000 12.853410 17.104598
421 1 56.032000 13.632000 15.000000
422 1 57.680000 15.125410 15.000000
423 2 57.680000 15.904000 17.104598
424 2 56.032000 17.397410 17.104598
425 1 56.032000 18.176000 15.000000
426 1 57.680000 19.669410 15.000000
427 2 57.680000 20.448000 17.104598
428 2 56.032000 21.941410 17.104598
429 1 56.032000 22.720000 15.000000
430 1 57.680000 24.213410 15.000000
431 2 57.680000 24.992000 17.104598
432 2 56.032000 26.485410 17.104598
433 1 59.328000 0.000000 15.000000
434 1 60.976000 1.493410 15.000000
435 2 60.976000 2.272000 17.104598
436 2 59.328000 3.765410 17.104598
437 1 59.328000 4.544000 15.000000
438 1 60.976000 6.037410 15.000000
439 2 60.976000 6.816000 17.104598
440 2 59.328000 8.309410 17.104598
441 1 59.328000 9.088000 15.000000
442 1 60.976000 10.581410 15.000000
443 2 60.976000 11.360000 17.104598
444 2 59.328000 12.853410 17.104598
445 1 59.328000 13.632000 15.000000
446 1 60.976000 15.125410 15.000000
447 2 60.976000 15.904000 17.104598
448 2 59.328000 17.397410 17.104598
449 1 59.328000 18.176000 15.000000
450 1 60.976000 19.669410 15.000000
451 2 60.976000 20.448000 17.104598
452 2 59.328000 21.941410 17.104598
453 1 59.328000 22.720000 15.000000
454 1 60.976000 24.213410 15.000000
455 2 60.976000 24.992000 17.104598
456 2 59.328000 26.485410 17.104598
457 1 62.624000 0.000000 15.000000
458 1 64.272000 1.493410 15.000000
459 2 64.272000 2.272000 17.104598
460 2 62.624000 3.765410 17.104598
461 1 62.624000 4.544000 15.000000
462 1 64.272000 6.037410 15.000000
463 2 64.272000 6.816000 17.104598
464 2 62.624000 8.309410 17.104598
465 1 62.624000 9.088000 15.000000
466 1 64.272000 10.581410 15.000000
467 2 64.272000 11.360000 17.104598
468 2 62.624000 12.853410 17.104598
469 1 62.624000 13.632000 15.000000
470 1 64.272000 15.125410 15.000000
471 2 64.272000 15.904000 17.104598
472 2 62.624000 17.397410 17.104598
473 1 62.624000 18.176000 15.000000
474 1 64.272000 19.669410 15.000000
475 2 64.272000 20.448000 17.104598
476 2 62.624000 21.941410 17.104598
477 1 62.624000 22.720000 15.000000
478 1 64.272000 24.213410 15.000000
479 2 64.272000 24.992000 17.104598
480 2 62.624000 26.485410 17.104598
481 1 65.920000 0.000000 15.000000
482 1 67.568000 1.493410 15.000000
483 2 67.568000 2.272000 17.104598
484 2 65.920000 3.765410 17.104598
485 1 65.920000 4.544000 15.000000
486 1 67.568000 6.037410 15.000000
487 2 67.568000 6.816000 17.104598
488 2 65.920000 8.309410 17.104598
489 1 65.920000 9.088000 15.000000
490 1 67.568000 10.581410 15.000000
491 2 67.568000 11.360000 17.104598
492 2 65.920000 12.853410 17.104598
493 1 65.920000 13.632000 15.000000
494 1 67.568000 15.125410 15.000000
495 2 67.568000 15.904000 17.104598
496 2 65.920000 17.397410 17.104598
497 1 65.920000 18.176000 15.000000
498 1 67.568000 19.669410 15.000000
499 2 67.568000 20.448000 17.104598
500 2 65.920000 21.941410 17.104598
501 1 65.920000 22.720000 15.000000
502 1 67.568000 24.213410 15.000000
503 2 67.568000 24.992000 17.104598
504 2 65.920000 26.485410 17.104598
505 1 69.216000 0.000000 15.000000
506 1 70.864000 1.493410 15.000000
507 2 70.864000 2.272000 17.104598
508 2 69.216000 3.765410 17.104598
509 1 69.216000 4.544000 15.000000
510 1 70.864000 6.037410 15.000000
511 2 70.864000 6.816000 17.104598
512 2 69.216000 8.309410 17.104598
513 1 69.216000 9.088000 15.000000
514 1 70.864000 10.581410 15.000000
515 2 70.864000 11.360000 17.104598
516 2 69.216000 12.853410 17.104598
517 1 69.216000 13.632000 15.000000
518 1 70.864000 15.125410 15.000000
519 2 70.864000 15.904000 17.104598
520 2 69.216000 17.397410 17.104598
521 1 69.216000 18.176000 15.000000
522 1 70.864000 19.669410 15.000000
523 2 70.864000 20.448000 17.104598
524 2 69.216000 21.941410 17.104598
525 1 69.216000 22.720000 15.000000
526 1 70.864000 24.213410 15.000000
527 2 70.864000 24.992000 17.104598
528 2 69.216000 26.485410 17.104598
529 1 72.512000 0.000000 15.000000
530 1 74.160000 1.493410 15.000000
531 2 74.160000 2.272000 17.104598
532 2 72.512000 3.765410 17.104598
533 1 72.512000 4.544000 15.000000
534 1 74.160000 6.037410 15.000000
535 2 74.160000 6.816000 17.104598
536 2 72.512000 8.309410 17.104598
537 1 72.512000 9.088000 15.000000
538 1 74.160000 10.581410 15.000000
539 2 74.160000 11.360000 17.104598
540 2 72.512000 12.853410 17.104598
541 1 72.512000 13.632000 15.000000
542 1 74.160000 15.125410 15.000000
543 2 74.160000 15.904000 17.104598
544 2 72.512000 17.397410 17.104598
545 1 72.512000 18.176000 15.000000
546 1 74.160000 19.669410 15.000000
547 2 74.160000 20.448000 17.104598
548 2 72.512000 21.941410 17.104598
549 1 72.512000 22.720000 15.000000
550 1 74.160000 24.213410 15.000000
551 2 74.160000 24.992000 17.104598
552 2 72.512000 26.485410 17.104598
553 1 75.808000 0.000000 15.000000
554 1 77.456000 1.493410 15.000000
555 2 77.456000 2.272000 17.104598
556 2 75.808000 3.765410 17.104598
557 1 75.808000 4.544000 15.000000
558 1 77.456000 6.037410 15.000000
559 2 77.456000 6.816000 17.104598
560 2 75.808000 8.309410 17.104598
561 1 75.808000 9.088000 15.000000
562 1 77.456000 10.581410 15.000000
563 2 77.456000 11.360000 17.104598
564 2 75.808000 12.853410 17.104598
565 1 75.808000 13.632000 15.000000
566 1 77.456000 15.125410 15.000000
567 2 77.456000 15.904000 17.104598
568 2 75.808000 17.397410 17.104598
569 1 75.808000 18.176000 15.000000
570 1 77.456000 19.669410 15.000000
571 2 77.456000 20.448000 17.104598
572 2 75.808000 21.941410 17.104598
573 1 75.808000 22.720000 15.000000
574 1 77.456000 24.213410 15.000000
575 2 77.456000 24.992000 17.104598
576 2 75.808000 26.485410 17.104598
577 1 79.104000 0.000000 15.000000
578 1 80.752000 1.493410 15.000000
579 2 80.752000 2.272000 17.104598
580 2 79.104000 3.765410 17.104598
581 1 79.104000 4.544000 15.000000
582 1 80.752000 6.037410 15.000000
583 2 80.752000 6.816000 17.104598
584 2 79.104000 8.309410 17.104598
585 1 79.104000 9.088000 15.000000
586 1 80.752000 10.581410 15.000000
587 2 80.752000 11.360000 17.104598
588 2 79.104000 12.853410 17.104598
589 1 79.104000 13.632000 15.000000
590 1 80.752000 15.125410 15.000000
591 2 80.752000 15.904000 17.104598
592 2 79.104000 17.397410 17.104598
593 1 79.104000 18.176000 15.000000
594 1 80.752000 19.669410 15.000000
595 2 80.752000 20.448000 17.104598
596 2 79.104000 21.941410 17.104598
597 1 79.104000 22.720000 15.000000
598 1 80.752000 24.213410 15.000000
599 2 80.752000 24.992000 17.104598
600 2 79.104000 26.485410 17.104598
601 1 82.400000 0.000000 15.000000
602 1 84.048000 1.493410 15.000000
603 2 84.048000 2.272000 17.104598
604 2 82.400000 3.765410 17.104598
605 1 82.400000 4.544000 15.000000
606 1 84.048000 6.037410 15.000000
607 2 84.048000 6.816000 17.104598
608 2 82.400000 8.309410 17.104598
609 1 82.400000 9.088000 15.000000
610 1 84.048000 10.581410 15.000000
611 2 84.048000 11.360000 17.104598
612 2 82.400000 12.853410 17.104598
613 1 82.400000 13.632000 15.000000
614 1 84.048000 15.125410 15.000000
615 2 84.048000 15.904000 17.104598
616 2 82.400000 17.397410 17.104598
617 1 82.400000 18.176000 15.000000
618 1 84.048000 19.669410 15.000000
619 2 84.048000 20.448000 17.104598
620 2 82.400000 21.941410 17.104598
621 1 82.400000 22.720000 15.000000
622 1 84.048000 24.213410 15.000000
623 2 84.048000 24.992000 17.104598
624 2 82.400000 26.485410 17.104598
625 1 85.696000 0.000000 15.000000
626 1 87.344000 1.493410 15.000000
627 2 87.344000 2.272000 17.104598
628 2 85.696000 3.765410 17.104598
629 1 85.696000 4.544000 15.000000
630 1 87.344000 6.037410 15.000000
631 2 87.344000 6.816000 17.104598
632 2 85.696000 8.309410 17.104598
633 1 85.696000 9.088000 15.000000
634 1 87.344000 10.581410 15.000000
635 2 87.344000 11.360000 17.104598
636 2 85.696000 12.853410 17.104598
637 1 85.696000 13.632000 15.000000
638 1 87.344000 15.125410 15.000000
639 2 87.344000 15.904000 17.104598
640 2 85.696000 17.397410 17.104598
641 1 85.696000 18.176000 15.000000
642 1 87.344000 19.669410 15.000000
643 2 87.344000 20.448000 17.104598
644 2 85.696000 21.941410 17.104598
645 1 85.696000 22.720000 15.000000
646 1 87.344000 24.213410 15.000000
647 2 87.344000 24.992000 17.104598
648 2 85.696000 26.485410 17.104598
649 1 88.992000 0.000000 15.000000
650 1 90.640000 1.493410 15.000000
651 2 90.640000 2.272000 17.104598
652 2 88.992000 3.765410 17.104598
653 1 88.992000 4.544000 15.000000
654 1 90.640000 6.037410 15.000000
655 2 90.640000 6.816000 17.104598
656 2 88.992000 8.309410 17.104598
657 1 88.992000 9.088000 15.000000
658 1 90.640000 10.581410 15.000000
659 2 90.640000 11.360000 17.104598
660 2 88.992000 12.853410 17.104598
661 1 88.992000 13.632000 15.000000
662 1 90.640000 15.125410 15.000000
663 2 90.640000 15.904000 17.104598
664 2 88.992000 17.397410 17.104598
665 1 88.992000 18.176000 15.000000
666 1 90.640000 19.669410 15.000000
667 2 90.640000 20.448000 17.104598
668 2 88.992000 21.941410 17.104598
669 1 88.992000 22.720000 15.000000
670 1 90.640000 24.213410 15.000000
671 2 90.640000 24.992000 17.104598
672 2 88.992000 26.485410 17.104598
673 1 92.288000 0.000000 15.000000
674 1 93.936000 1.493410 15.000000
675 2 93.936000 2.272000 17.104598
676 2 92.288000 3.765410 17.104598
677 1 92.288000 4.544000 15.000000
678 1 93.936000 6.037410 15.000000
679 2 93.936000 6.816000 17.104598
680 2 92.288000 8.309410 17.104598
681 1 92.288000 9.088000 15.000000
682 1 93.936000 10.581410 15.000000
683 2 93.936000 11.360000 17.104598
684 2 92.288000 12.853410 17.104598
685 1 92.288000 13.632000 15.000000
686 1 93.936000 15.125410 15.000000
687 2 93.936000 15.904000 17.104598
688 2 92.288000 17.397410 17.104598
689 1 92.288000 18.176000 15.000000
690 1 93.936000 19.669410 15.000000
691 2 93.936000 20.448000 17.104598
692 2 92.288000 21.941410 17.104598
693 1 92.288000 22.720000 15.000000
694 1 93.936000 24.213410 15.000000
695 2 93.936000 24.992000 17.104598
696 2 92.288000 26.485410 17.104598
697 1 95.584000 0.000000 15.000000
698 1 97.232000 1.493410 15.000000
699 2 97.232000 2.272000 17.104598
700 2 95.584000 3.765410 17.104598
701 1 95.584000 4.544000 15.000000
702 1 97.232000 6.037410 15.000000
703 2 97.232000 6.816000 17.104598
704 2 95.584000 8.309410 17.104598
705 1 95.584000 9.088000 15.000000
706 1 97.232000 10.581410 15.000000
707 2 97.232000 11.360000 17.104598
708 2 95.584000 12.853410 17.104598
709 1 95.584000 13.632000 15.000000
710 1 97.232000 15.125410 15.000000
711 2 97.232000 15.904000 17.104598
712 2 95.584000 17.397410 17.104598
713 1 95.584000 18.176000 15.000000
714 1 97.232000 19.669410 15.000000
715 2 97.232000 20.448000 17.104598
716 2 95.584000 21.941410 17.104598
717 1 95.584000 22.720000 15.000000
718 1 97.232000 24.213410 15.000000
719 2 97.232000 24.992000 17.104598
720 2 95.584000 26.485410 17.104598
721 1 98.880000 0.000000 15.000000
722 1 100.528000 1.493410 15.000000
723 2 100.528000 2.272000 17.104598
724 2 98.880000 3.765410 17.104598
725 1 98.880000 4.544000 15.000000
726 1 100.528000 6.037410 15.000000
727 2 100.528000 6.816000 17.104598
728 2 98.880000 8.309410 17.104598
729 1 98.880000 9.088000 15.000000
730 1 100.528000 10.581410 15.000000
731 2 100.528000 11.360000 17.104598
732 2 98.880000 12.853410 17.104598
733 1 98.880000 13.632000 15.000000
734 1 100.528000 15.125410 15.000000
735 2 100.528000 15.904000 17.104598
736 2 98.880000 17.397410 17.104598
737 1 98.880000 18.176000 15.000000
738 1 100.528000 19.669410 15.000000
739 2 100.528000 20.448000 17.104598
740 2 98.880000 21.941410 17.104598
741 1 98.880000 22.720000 15.000000
742 1 100.528000 24.213410 15.000000
743 2 100.528000 24.992000 17.104598
744 2 98.880000 26.485410 17.104598
745 1 102.176000 0.000000 15.000000
746 1 103.824000 1.493410 15.000000
747 2 103.824000 2.272000 17.104598
748 2 102.176000 3.765410 17.104598
749 1 102.176000 4.544000 15.000000
750 1 103.824000 6.037410 15.000000
751 2 103.824000 6.816000 17.104598
752 2 102.176000 8.309410 17.104598
753 1 102.176000 9.088000 15.000000
754 1 103.824000 10.581410 15.000000
755 2 103.824000 11.360000 17.104598
756 2 102.176000 12.853410 17.104598
757 1 102.176000 13.632000 15.000000
758 1 103.824000 15.125410 15.000000
759 2 103.824000 15.904000 17.104598
760 2 102.176000 17.397410 17.104598
761 1 102.176000 18.176000 15.000000
762 1 103.824000 19.669410 15.000000
763 2 103.824000 20.448000 17.104598
764 2 102.176000 21.941410 17.104598
765 1 102.176000 22.720000 15.000000
766 1 103.824000 24.213410 15.000000
767 2 103.824000 24.992000 17.104598
768 2 102.176000 26.485410 17.104598
769 1 105.472000 0.000000 15.000000
770 1 107.120000 1.493410 15.000000
771 2 107.120000 2.272000 17.104598
772 2 105.472000 3.765410 17.104598
773 1 105.472000 4.544000 15.000000
774 1 107.120000 6.037410 15.000000
775 2 107.120000 6.816000 17.104598
776 2 105.472000 8.309410 17.104598
777 1 105.472000 9.088000 15.000000
778 1 107.120000 10.581410 15.000000
779 2 107.120000 11.360000 17.104598
780 2 105.472000 12.853410 17.104598
781 1 105.472000 13.632000 15.000000
782 1 107.120000 15.125410 15.000000
783 2 107.120000 15.904000 17.104598
784 2 105.472000 17.397410 17.104598
785 1 105.472000 18.176000 15.000000
786 1 107.120000 19.669410 15.000000
787 2 107.120000 20.448000 17.104598
788 2 105.472000 21.941410 17.104598
789 1 105.472000 22.720000 15.000000
790 1 107.120000 24.213410 15.000000
791 2 107.120000 24.992000 17.104598
792 2 105.472000 26.485410 17.104598
793 1 108.768000 0.000000 15.000000
794 1 110.416000 1.493410 15.000000
795 2 110.416000 2.272000 17.104598
796 2 108.768000 3.765410 17.104598
797 1 108.768000 4.544000 15.000000
798 1 110.416000 6.037410 15.000000
799 2 110.416000 6.816000 17.104598
800 2 108.768000 8.309410 17.104598
801 1 108.768000 9.088000 15.000000
802 1 110.416000 10.581410 15.000000
803 2 110.416000 11.360000 17.104598
804 2 108.768000 12.853410 17.104598
805 1 108.768000 13.632000 15.000000
806 1 110.416000 15.125410 15.000000
807 2 110.416000 15.904000 17.104598
808 2 108.768000 17.397410 17.104598
809 1 108.768000 18.176000 15.000000
810 1 110.416000 19.669410 15.000000
811 2 110.416000 20.448000 17.104598
812 2 108.768000 21.941410 17.104598
813 1 108.768000 22.720000 15.000000
814 1 110.416000 24.213410 15.000000
815 2 110.416000 24.992000 17.104598
816 2 108.768000 26.485410 17.104598
817 1 112.064000 0.000000 15.000000
818 1 113.712000 1.493410 15.000000
819 2 113.712000 2.272000 17.104598
820 2 112.064000 3.765410 17.104598
821 1 112.064000 4.544000 15.000000
822 1 113.712000 6.037410 15.000000
823 2 113.712000 6.816000 17.104598
824 2 112.064000 8.309410 17.104598
825 1 112.064000 9.088000 15.000000
826 1 113.712000 10.581410 15.000000
827 2 113.712000 11.360000 17.104598
828 2 112.064000 12.853410 17.104598
829 1 112.064000 13.632000 15.000000
830 1 113.712000 15.125410 15.000000
831 2 113.712000 15.904000 17.104598
832 2 112.064000 17.397410 17.104598
833 1 112.064000 18.176000 15.000000
834 1 113.712000 19.669410 15.000000
835 2 113.712000 20.448000 17.104598
836 2 112.064000 21.941410 17.104598
837 1 112.064000 22.720000 15.000000
838 1 113.712000 24.213410 15.000000
839 2 113.712000 24.992000 17.104598
840 2 112.064000 26.485410 17.104598
841 1 115.360000 0.000000 15.000000
842 1 117.008000 1.493410 15.000000
843 2 117.008000 2.272000 17.104598
844 2 115.360000 3.765410 17.104598
845 1 115.360000 4.544000 15.000000
846 1 117.008000 6.037410 15.000000
847 2 117.008000 6.816000 17.104598
848 2 115.360000 8.309410 17.104598
849 1 115.360000 9.088000 15.000000
850 1 117.008000 10.581410 15.000000
851 2 117.008000 11.360000 17.104598
852 2 115.360000 12.853410 17.104598
853 1 115.360000 13.632000 15.000000
854 1 117.008000 15.125410 15.000000
855 2 117.008000 15.904000 17.104598
856 2 115.360000 17.397410 17.104598
857 1 115.360000 18.176000 15.000000
858 1 117.008000 19.669410 15.000000
859 2 117.008000 20.448000 17.104598
860 2 115.360000 21.941410 17.104598
861 1 115.360000 22.720000 15.000000
862 1 117.008000 24.213410 15.000000
863 2 117.008000 24.992000 17.104598
864 2 115.360000 26.485410 17.104598
865 1 118.656000 0.000000 15.000000
866 1 120.304000 1.493410 15.000000
867 2 120.304000 2.272000 17.104598
868 2 118.656000 3.765410 17.104598
869 1 118.656000 4.544000 15.000000
870 1 120.304000 6.037410 15.000000
871 2 120.304000 6.816000 17.104598
872 2 118.656000 8.309410 17.104598
873 1 118.656000 9.088000 15.000000
874 1 120.304000 10.581410 15.000000
875 2 120.304000 11.360000 17.104598
876 2 118.656000 12.853410 17.104598
877 1 118.656000 13.632000 15.000000
878 1 120.304000 15.125410 15.000000
879 2 120.304000 15.904000 17.104598
880 2 118.656000 17.397410 17.104598
881 1 118.656000 18.176000 15.000000
882 1 120.304000 19.669410 15.000000
883 2 120.304000 20.448000 17.104598
884 2 118.656000 21.941410 17.104598
885 1 118.656000 22.720000 15.000000
886 1 120.304000 24.213410 15.000000
887 2 120.304000 24.992000 17.104598
888 2 118.656000 26.485410 17.104598
889 1 121.952000 0.000000 15.000000
890 1 123.600000 1.493410 15.000000
891 2 123.600000 2.272000 17.104598
892 2 121.952000 3.765410 17.104598
893 1 121.952000 4.544000 15.000000
894 1 123.600000 6.037410 15.000000
895 2 123.600000 6.816000 17.104598
896 2 121.952000 8.309410 17.104598
897 1 121.952000 9.088000 15.000000
898 1 123.600000 10.581410 15.000000
899 2 123.600000 11.360000 17.104598
900 2 121.952000 12.853410 17.104598
901 1 121.952000 13.632000 15.000000
902 1 123.600000 15.125410 15.000000
903 2 123.600000 15.904000 17.104598
904 2 121.952000 17.397410 17.104598
905 1 121.952000 18.176000 15.000000
906 1 123.600000 19.669410 15.000000
907 2 123.600000 20.448000 17.104598
908 2 121.952000 21.941410 17.104598
909 1 121.952000 22.720000 15.000000
910 1 123.600000 24.213410 15.000000
911 2 123.600000 24.992000 17.104598
912 2 121.952000 26.485410 17.104598
913 1 125.248000 0.000000 15.000000
914 1 126.896000 1.493410 15.000000
915 2 126.896000 2.272000 17.104598
916 2 125.248000 3.765410 17.104598
917 1 125.248000 4.544000 15.000000
918 1 126.896000 6.037410 15.000000
919 2 126.896000 6.816000 17.104598
920 2 125.248000 8.309410 17.104598
921 1 125.248000 9.088000 15.000000
922 1 126.896000 10.581410 15.000000
923 2 126.896000 11.360000 17.104598
924 2 125.248000 12.853410 17.104598
925 1 125.248000 13.632000 15.000000
926 1 126.896000 15.125410 15.000000
927 2 126.896000 15.904000 17.104598
928 2 125.248000 17.397410 17.104598
929 1 125.248000 18.176000 15.000000
930 1 126.896000 19.669410 15.000000
931 2 126.896000 20.448000 17.104598
932 2 125.248000 21.941410 17.104598
933 1 125.248000 22.720000 15.000000
934 1 126.896000 24.213410 15.000000
935 2 126.896000 24.992000 17.104598
936 2 125.248000 26.485410 17.104598
937 1 128.544000 0.000000 15.000000
938 1 130.192000 1.493410 15.000000
939 2 130.192000 2.272000 17.104598
940 2 128.544000 3.765410 17.104598
941 1 128.544000 4.544000 15.000000
942 1 130.192000 6.037410 15.000000
943 2 130.192000 6.816000 17.104598
944 2 128.544000 8.309410 17.104598
945 1 128.544000 9.088000 15.000000
946 1 130.192000 10.581410 15.000000
947 2 130.192000 11.360000 17.104598
948 2 128.544000 12.853410 17.104598
949 1 128.544000 13.632000 15.000000
950 1 130.192000 15.125410 15.000000
951 2 130.192000 15.904000 17.104598
952 2 128.544000 17.397410 17.104598
953 1 128.544000 18.176000 15.000000
954 1 130.192000 19.669410 15.000000
955 2 130.192000 20.448000 17.104598
956 2 128.544000 21.941410 17.104598
957 1 128.544000 22.720000 15.000000
958 1 130.192000 24.213410 15.000000
959 2 130.192000 24.992000 17.104598
960 2 128.544000 26.485410 17.104598
961 1 131.840000 0.000000 15.000000
962 1 133.488000 1.493410 15.000000
963 2 133.488000 2.272000 17.104598
964 2 131.840000 3.765410 17.104598
965 1 131.840000 4.544000 15.000000
966 1 133.488000 6.037410 15.000000
967 2 133.488000 6.816000 17.104598
968 2 131.840000 8.309410 17.104598
969 1 131.840000 9.088000 15.000000
970 1 133.488000 10.581410 15.000000
971 2 133.488000 11.360000 17.104598
972 2 131.840000 12.853410 17.104598
973 1 131.840000 13.632000 15.000000
974 1 133.488000 15.125410 15.000000
975 2 133.488000 15.904000 17.104598
976 2 131.840000 17.397410 17.104598
977 1 131.840000 18.176000 15.000000
978 1 133.488000 19.669410 15.000000
979 2 133.488000 20.448000 17.104598
980 2 131.840000 21.941410 17.104598
981 1 131.840000 22.720000 15.000000
982 1 133.488000 24.213410 15.000000
983 2 133.488000 24.992000 17.104598
984 2 131.840000 26.485410 17.104598
985 1 135.136000 0.000000 15.000000
986 1 136.784000 1.493410 15.000000
987 2 136.784000 2.272000 17.104598
988 2 135.136000 3.765410 17.104598
989 1 135.136000 4.544000 15.000000
990 1 136.784000 6.037410 15.000000
991 2 136.784000 6.816000 17.104598
992 2 135.136000 8.309410 17.104598
993 1 135.136000 9.088000 15.000000
994 1 136.784000 10.581410 15.000000
995 2 136.784000 11.360000 17.104598
996 2 135.136000 12.853410 17.104598
997 1 135.136000 13.632000 15.000000
998 1 136.784000 15.125410 15.000000
999 2 136.784000 15.904000 17.104598
1000 2 135.136000 17.397410 17.104598
1001 1 135.136000 18.176000 15.000000
1002 1 136.784000 19.669410 15.000000
1003 2 136.784000 20.448000 17.104598
1004 2 135.136000 21.941410 17.104598
1005 1 135.136000 22.720000 15.000000
1006 1 136.784000 24.213410 15.000000
1007 2 136.784000 24.992000 17.104598
1008 2 135.136000 26.485410 17.104598
1009 1 138.432000 0.000000 15.000000
1010 1 140.080000 1.493410 15.000000
1011 2 140.080000 2.272000 17.104598
1012 2 138.432000 3.765410 17.104598
1013 1 138.432000 4.544000 15.000000
1014 1 140.080000 6.037410 15.000000
1015 2 140.080000 6.816000 17.104598
1016 2 138.432000 8.309410 17.104598
1017 1 138.432000 9.088000 15.000000
1018 1 140.080000 10.581410 15.000000
1019 2 140.080000 11.360000 17.104598
1020 2 138.432000 12.853410 17.104598
1021 1 138.432000 13.632000 15.000000
1022 1 140.080000 15.125410 15.000000
1023 2 140.080000 15.904000 17.104598
1024 2 138.432000 17.397410 17.104598
1025 1 138.432000 18.176000 15.000000
1026 1 140.080000 19.669410 15.000000
1027 2 140.080000 20.448000 17.104598
1028 2 138.432000 21.941410 17.104598
1029 1 138.432000 22.720000 15.000000
1030 1 140.080000 24.213410 15.000000
1031 2 140.080000 24.992000 17.104598
1032 2 138.432000 26.485410 17.104598
1033 1 141.728000 0.000000 15.000000
1034 1 143.376000 1.493410 15.000000
1035 2 143.376000 2.272000 17.104598
1036 2 141.728000 3.765410 17.104598
1037 1 141.728000 4.544000 15.000000
1038 1 143.376000 6.037410 15.000000
1039 2 143.376000 6.816000 17.104598
1040 2 141.728000 8.309410 17.104598
1041 1 141.728000 9.088000 15.000000
1042 1 143.376000 10.581410 15.000000
1043 2 143.376000 11.360000 17.104598
1044 2 141.728000 12.853410 17.104598
1045 1 141.728000 13.632000 15.000000
1046 1 143.376000 15.125410 15.000000
1047 2 143.376000 15.904000 17.104598
1048 2 141.728000 17.397410 17.104598
1049 1 141.728000 18.176000 15.000000
1050 1 143.376000 19.669410 15.000000
1051 2 143.376000 20.448000 17.104598
1052 2 141.728000 21.941410 17.104598
1053 1 141.728000 22.720000 15.000000
1054 1 143.376000 24.213410 15.000000
1055 2 143.376000 24.992000 17.104598
1056 2 141.728000 26.485410 17.104598
1057 1 145.024000 0.000000 15.000000
1058 1 146.672000 1.493410 15.000000
1059 2 146.672000 2.272000 17.104598
1060 2 145.024000 3.765410 17.104598
1061 1 145.024000 4.544000 15.000000
1062 1 146.672000 6.037410 15.000000
1063 2 146.672000 6.816000 17.104598
1064 2 145.024000 8.309410 17.104598
1065 1 145.024000 9.088000 15.000000
1066 1 146.672000 10.581410 15.000000
1067 2 146.672000 11.360000 17.104598
1068 2 145.024000 12.853410 17.104598
1069 1 145.024000 13.632000 15.000000
1070 1 146.672000 15.125410 15.000000
1071 2 146.672000 15.904000 17.104598
1072 2 145.024000 17.397410 17.104598
1073 1 145.024000 18.176000 15.000000
1074 1 146.672000 19.669410 15.000000
1075 2 146.672000 20.448000 17.104598
1076 2 145.024000 21.941410 17.104598
1077 1 145.024000 22.720000 15.000000
1078 1 146.672000 24.213410 15.000000
1079 2 146.672000 24.992000 17.104598
1080 2 145.024000 26.485410 17.104598
1081 1 148.320000 0.000000 15.000000
1082 1 149.968000 1.493410 15.000000
1083 2 149.968000 2.272000 17.104598
1084 2 148.320000 3.765410 17.104598
1085 1 148.320000 4.544000 15.000000
1086 1 149.968000 6.037410 15.000000
1087 2 149.968000 6.816000 17.104598
1088 2 148.320000 8.309410 17.104598
1089 1 148.320000 9.088000 15.000000
1090 1 149.968000 10.581410 15.000000
1091 2 149.968000 11.360000 17.104598
1092 2 148.320000 12.853410 17.104598
1093 1 148.320000 13.632000 15.000000
1094 1 149.968000 15.125410 15.000000
1095 2 149.968000 15.904000 17.104598
1096 2 148.320000 17.397410 17.104598
1097 1 148.320000 18.176000 15.000000
1098 1 149.968000 19.669410 15.000000
1099 2 149.968000 20.448000 17.104598
1100 2 148.320000 21.941410 17.104598
1101 1 148.320000 22.720000 15.000000
1102 1 149.968000 24.213410 15.000000
1103 2 149.968000 24.992000 17.104598
1104 2 148.320000 26.485410 17.104598
1105 1 151.616000 0.000000 15.000000
1106 1 153.264000 1.493410 15.000000
1107 2 153.264000 2.272000 17.104598
1108 2 151.616000 3.765410 17.104598
1109 1 151.616000 4.544000 15.000000
1110 1 153.264000 6.037410 15.000000
1111 2 153.264000 6.816000 17.104598
1112 2 151.616000 8.309410 17.104598
1113 1 151.616000 9.088000 15.000000
1114 1 153.264000 10.581410 15.000000
1115 2 153.264000 11.360000 17.104598
1116 2 151.616000 12.853410 17.104598
1117 1 151.616000 13.632000 15.000000
1118 1 153.264000 15.125410 15.000000
1119 2 153.264000 15.904000 17.104598
1120 2 151.616000 17.397410 17.104598
1121 1 151.616000 18.176000 15.000000
1122 1 153.264000 19.669410 15.000000
1123 2 153.264000 20.448000 17.104598
1124 2 151.616000 21.941410 17.104598
1125 1 151.616000 22.720000 15.000000
1126 1 153.264000 24.213410 15.000000
1127 2 153.264000 24.992000 17.104598
1128 2 151.616000 26.485410 17.104598
1129 1 154.912000 0.000000 15.000000
1130 1 156.560000 1.493410 15.000000
1131 2 156.560000 2.272000 17.104598
1132 2 154.912000 3.765410 17.104598
1133 1 154.912000 4.544000 15.000000
1134 1 156.560000 6.037410 15.000000
1135 2 156.560000 6.816000 17.104598
1136 2 154.912000 8.309410 17.104598
1137 1 154.912000 9.088000 15.000000
1138 1 156.560000 10.581410 15.000000
1139 2 156.560000 11.360000 17.104598
1140 2 154.912000 12.853410 17.104598
1141 1 154.912000 13.632000 15.000000
1142 1 156.560000 15.125410 15.000000
1143 2 156.560000 15.904000 17.104598
1144 2 154.912000 17.397410 17.104598
1145 1 154.912000 18.176000 15.000000
1146 1 156.560000 19.669410 15.000000
1147 2 156.560000 20.448000 17.104598
1148 2 154.912000 21.941410 17.104598
1149 1 154.912000 22.720000 15.000000
1150 1 156.560000 24.213410 15.000000
1151 2 156.560000 24.992000 17.104598
1152 2 154.912000 26.485410 17.104598
1153 1 158.208000 0.000000 15.000000
1154 1 159.856000 1.493410 15.000000
1155 2 159.856000 2.272000 17.104598
1156 2 158.208000 3.765410 17.104598
1157 1 158.208000 4.544000 15.000000
1158 1 159.856000 6.037410 15.000000
1159 2 159.856000 6.816000 17.104598
1160 2 158.208000 8.309410 17.104598
1161 1 158.208000 9.088000 15.000000
1162 1 159.856000 10.581410 15.000000
1163 2 159.856000 11.360000 17.104598
1164 2 158.208000 12.853410 17.104598
1165 1 158.208000 13.632000 15.000000
1166 1 159.856000 15.125410 15.000000
1167 2 159.856000 15.904000 17.104598
1168 2 158.208000 17.397410 17.104598
1169 1 158.208000 18.176000 15.000000
1170 1 159.856000 19.669410 15.000000
1171 2 159.856000 20.448000 17.104598
1172 2 158.208000 21.941410 17.104598
1173 1 158.208000 22.720000 15.000000
1174 1 159.856000 24.213410 15.000000
1175 2 159.856000 24.992000 17.104598
1176 2 158.208000 26.485410 17.104598
1177 1 161.504000 0.000000 15.000000
1178 1 163.152000 1.493410 15.000000
1179 2 163.152000 2.272000 17.104598
1180 2 161.504000 3.765410 17.104598
1181 1 161.504000 4.544000 15.000000
1182 1 163.152000 6.037410 15.000000
1183 2 163.152000 6.816000 17.104598
1184 2 161.504000 8.309410 17.104598
1185 1 161.504000 9.088000 15.000000
1186 1 163.152000 10.581410 15.000000
1187 2 163.152000 11.360000 17.104598
1188 2 161.504000 12.853410 17.104598
1189 1 161.504000 13.632000 15.000000
1190 1 163.152000 15.125410 15.000000
1191 2 163.152000 15.904000 17.104598
1192 2 161.504000 17.397410 17.104598
1193 1 161.504000 18.176000 15.000000
1194 1 163.152000 19.669410 15.000000
1195 2 163.152000 20.448000 17.104598
1196 2 161.504000 21.941410 17.104598
1197 1 161.504000 22.720000 15.000000
1198 1 163.152000 24.213410 15.000000
1199 2 163.152000 24.992000 17.104598
1200 2 161.504000 26.485410 17.104598
1201 1 164.800000 0.000000 15.000000
1202 1 166.448000 1.493410 15.000000
1203 2 166.448000 2.272000 17.104598
1204 2 164.800000 3.765410 17.104598
1205 1 164.800000 4.544000 15.000000
1206 1 166.448000 6.037410 15.000000
1207 2 166.448000 6.816000 17.104598
1208 2 164.800000 8.309410 17.104598
1209 1 164.800000 9.088000 15.000000
1210 1 166.448000 10.581410 15.000000
1211 2 166.448000 11.360000 17.104598
1212 2 164.800000 12.853410 17.104598
1213 1 164.800000 13.632000 15.000000
1214 1 166.448000 15.125410 15.000000
1215 2 166.448000 15.904000 17.104598
1216 2 164.800000 17.397410 17.104598
1217 1 164.800000 18.176000 15.000000
1218 1 166.448000 19.669410 15.000000
1219 2 166.448000 20.448000 17.104598
1220 2 164.800000 21.941410 17.104598
1221 1 164.800000 22.720000 15.000000
1222 1 166.448000 24.213410 15.000000
1223 2 166.448000 24.992000 17.104598
1224 2 164.800000 26.485410 17.104598
1225 1 168.096000 0.000000 15.000000
1226 1 169.744000 1.493410 15.000000
1227 2 169.744000 2.272000 17.104598
1228 2 168.096000 3.765410 17.104598
1229 1 168.096000 4.544000 15.000000
1230 1 169.744000 6.037410 15.000000
1231 2 169.744000 6.816000 17.104598
1232 2 168.096000 8.309410 17.104598
1233 1 168.096000 9.088000 15.000000
1234 1 169.744000 10.581410 15.000000
1235 2 169.744000 11.360000 17.104598
1236 2 168.096000 12.853410 17.104598
1237 1 168.096000 13.632000 15.000000
1238 1 169.744000 15.125410 15.000000
1239 2 169.744000 15.904000 17.104598
1240 2 168.096000 17.397410 17.104598
1241 1 168.096000 18.176000 15.000000
1242 1 169.744000 19.669410 15.000000
1243 2 169.744000 20.448000 17.104598
1244 2 168.096000 21.941410 17.104598
1245 1 168.096000 22.720000 15.000000
1246 1 169.744000 24.213410 15.000000
1247 2 169.744000 24.992000 17.104598
1248 2 168.096000 26.485410 17.104598
1249 1 171.392000 0.000000 15.000000
1250 1 173.040000 1.493410 15.000000
1251 2 173.040000 2.272000 17.104598
1252 2 171.392000 3.765410 17.104598
1253 1 171.392000 4.544000 15.000000
1254 1 173.040000 6.037410 15.000000
1255 2 173.040000 6.816000 17.104598
1256 2 171.392000 8.309410 17.104598
1257 1 171.392000 9.088000 15.000000
1258 1 173.040000 10.581410 15.000000
1259 2 173.040000 11.360000 17.104598
1260 2 171.392000 12.853410 17.104598
1261 1 171.392000 13.632000 15.000000
1262 1 173.040000 15.125410 15.000000
1263 2 173.040000 15.904000 17.104598
1264 2 171.392000 17.397410 17.104598
1265 1 171.392000 18.176000 15.000000
1266 1 173.040000 19.669410 15.000000
1267 2 173.040000 20.448000 17.104598
1268 2 171.392000 21.941410 17.104598
1269 1 171.392000 22.720000 15.000000
1270 1 173.040000 24.213410 15.000000
1271 2 173.040000 24.992000 17.104598
1272 2 171.392000 26.485410 17.104598
1273 1 174.688000 0.000000 15.000000
1274 1 176.336000 1.493410 15.000000
1275 2 176.336000 2.272000 17.104598
1276 2 174.688000 3.765410 17.104598
1277 1 174.688000 4.544000 15.000000
1278 1 176.336000 6.037410 15.000000
1279 2 176.336000 6.816000 17.104598
1280 2 174.688000 8.309410 17.104598
1281 1 174.688000 9.088000 15.000000
1282 1 176.336000 10.581410 15.000000
1283 2 176.336000 11.360000 17.104598
1284 2 174.688000 12.853410 17.104598
1285 1 174.688000 13.632000 15.000000
1286 1 176.336000 15.125410 15.000000
1287 2 176.336000 15.904000 17.104598
1288 2 174.688000 17.397410 17.104598
1289 1 174.688000 18.176000 15.000000
1290 1 176.336000 19.669410 15.000000
1291 2 176.336000 20.448000 17.104598
1292 2 174.688000 21.941410 17.104598
1293 1 174.688000 22.720000 15.000000
1294 1 176.336000 24.213410 15.000000
1295 2 176.336000 24.992000 17.104598
1296 2 174.688000 26.485410 17.104598
1297 1 177.984000 0.000000 15.000000
1298 1 179.632000 1.493410 15.000000
1299 2 179.632000 2.272000 17.104598
1300 2 177.984000 3.765410 17.104598
1301 1 177.984000 4.544000 15.000000
1302 1 179.632000 6.037410 15.000000
1303 2 179.632000 6.816000 17.104598
1304 2 177.984000 8.309410 17.104598
1305 1 177.984000 9.088000 15.000000
1306 1 179.632000 10.581410 15.000000
1307 2 179.632000 11.360000 17.104598
1308 2 177.984000 12.853410 17.104598
1309 1 177.984000 13.632000 15.000000
1310 1 179.632000 15.125410 15.000000
1311 2 179.632000 15.904000 17.104598
1312 2 177.984000 17.397410 17.104598
1313 1 177.984000 18.176000 15.000000
1314 1 179.632000 19.669410 15.000000
1315 2 179.632000 20.448000 17.104598
1316 2 177.984000 21.941410 17.104598
1317 1 177.984000 22.720000 15.000000
1318 1 179.632000 24.213410 15.000000
1319 2 179.632000 24.992000 17.104598
1320 2 177.984000 26.485410 17.104598
1321 1 181.280000 0.000000 15.000000
1322 1 182.928000 1.493410 15.000000
1323 2 182.928000 2.272000 17.104598
1324 2 181.280000 3.765410 17.104598
1325 1 181.280000 4.544000 15.000000
1326 1 182.928000 6.037410 15.000000
1327 2 182.928000 6.816000 17.104598
1328 2 181.280000 8.309410 17.104598
1329 1 181.280000 9.088000 15.000000
1330 1 182.928000 10.581410 15.000000
1331 2 182.928000 11.360000 17.104598
1332 2 181.280000 12.853410 17.104598
1333 1 181.280000 13.632000 15.000000
1334 1 182.928000 15.125410 15.000000
1335 2 182.928000 15.904000 17.104598
1336 2 181.280000 17.397410 17.104598
1337 1 181.280000 18.176000 15.000000
1338 1 182.928000 19.669410 15.000000
1339 2 182.928000 20.448000 17.104598
1340 2 181.280000 21.941410 17.104598
1341 1 181.280000 22.720000 15.000000
1342 1 182.928000 24.213410 15.000000
1343 2 182.928000 24.992000 17.104598
1344 2 181.280000 26.485410 17.104598
1345 1 184.576000 0.000000 15.000000
1346 1 186.224000 1.493410 15.000000
1347 2 186.224000 2.272000 17.104598
1348 2 184.576000 3.765410 17.104598
1349 1 184.576000 4.544000 15.000000
1350 1 186.224000 6.037410 15.000000
1351 2 186.224000 6.816000 17.104598
1352 2 184.576000 8.309410 17.104598
1353 1 184.576000 9.088000 15.000000
1354 1 186.224000 10.581410 15.000000
1355 2 186.224000 11.360000 17.104598
1356 2 184.576000 12.853410 17.104598
1357 1 184.576000 13.632000 15.000000
1358 1 186.224000 15.125410 15.000000
1359 2 186.224000 15.904000 17.104598
1360 2 184.576000 17.397410 17.104598
1361 1 184.576000 18.176000 15.000000
1362 1 186.224000 19.669410 15.000000
1363 2 186.224000 20.448000 17.104598
1364 2 184.576000 21.941410 17.104598
1365 1 184.576000 22.720000 15.000000
1366 1 186.224000 24.213410 15.000000
1367 2 186.224000 24.992000 17.104598
1368 2 184.576000 26.485410 17.104598
1369 1 187.872000 0.000000 15.000000
1370 1 189.520000 1.493410 15.000000
1371 2 189.520000 2.272000 17.104598
1372 2 187.872000 3.765410 17.104598
1373 1 187.872000 4.544000 15.000000
1374 1 189.520000 6.037410 15.000000
1375 2 189.520000 6.816000 17.104598
1376 2 187.872000 8.309410 17.104598
1377 1 187.872000 9.088000 15.000000
1378 1 189.520000 10.581410 15.000000
1379 2 189.520000 11.360000 17.104598
1380 2 187.872000 12.853410 17.104598
1381 1 187.872000 13.632000 15.000000
1382 1 189.520000 15.125410 15.000000
1383 2 189.520000 15.904000 17.104598
1384 2 187.872000 17.397410 17.104598
1385 1 187.872000 18.176000 15.000000
1386 1 189.520000 19.669410 15.000000
1387 2 189.520000 20.448000 17.104598
1388 2 187.872000 21.941410 17.104598
1389 1 187.872000 22.720000 15.000000
1390 1 189.520000 24.213410 15.000000
1391 2 189.520000 24.992000 17.104598
1392 2 187.872000 26.485410 17.104598
1393 1 191.168000 0.000000 15.000000
1394 1 192.816000 1.493410 15.000000
1395 2 192.816000 2.272000 17.104598
1396 2 191.168000 3.765410 17.104598
1397 1 191.168000 4.544000 15.000000
1398 1 192.816000 6.037410 15.000000
1399 2 192.816000 6.816000 17.104598
1400 2 191.168000 8.309410 17.104598
1401 1 191.168000 9.088000 15.000000
1402 1 192.816000 10.581410 15.000000
1403 2 192.816000 11.360000 17.104598
1404 2 191.168000 12.853410 17.104598
1405 1 191.168000 13.632000 15.000000
1406 1 192.816000 15.125410 15.000000
1407 2 192.816000 15.904000 17.104598
1408 2 191.168000 17.397410 17.104598
1409 1 191.168000 18.176000 15.000000
1410 1 192.816000 19.669410 15.000000
1411 2 192.816000 20.448000 17.104598
1412 2 191.168000 21.941410 17.104598
1413 1 191.168000 22.720000 15.000000
1414 1 192.816000 24.213410 15.000000
1415 2 192.816000 24.992000 17.104598
1416 2 191.168000 26.485410 17.104598
1417 1 194.464000 0.000000 15.000000
1418 1 196.112000 1.493410 15.000000
1419 2 196.112000 2.272000 17.104598
1420 2 194.464000 3.765410 17.104598
1421 1 194.464000 4.544000 15.000000
1422 1 196.112000 6.037410 15.000000
1423 2 196.112000 6.816000 17.104598
1424 2 194.464000 8.309410 17.104598
1425 1 194.464000 9.088000 15.000000
1426 1 196.112000 10.581410 15.000000
1427 2 196.112000 11.360000 17.104598
1428 2 194.464000 12.853410 17.104598
1429 1 194.464000 13.632000 15.000000
1430 1 196.112000 15.125410 15.000000
1431 2 196.112000 15.904000 17.104598
1432 2 194.464000 17.397410 17.104598
1433 1 194.464000 18.176000 15.000000
1434 1 196.112000 19.669410 15.000000
1435 2 196.112000 20.448000 17.104598
1436 2 194.464000 21.941410 17.104598
1437 1 194.464000 22.720000 15.000000
1438 1 196.112000 24.213410 15.000000
1439 2 196.112000 24.992000 17.104598
1440 2 194.464000 26.485410 17.104598
1441 1 197.760000 0.000000 15.000000
1442 1 199.408000 1.493410 15.000000
1443 2 199.408000 2.272000 17.104598
1444 2 197.760000 3.765410 17.104598
1445 1 197.760000 4.544000 15.000000
1446 1 199.408000 6.037410 15.000000
1447 2 199.408000 6.816000 17.104598
1448 2 197.760000 8.309410 17.104598
1449 1 197.760000 9.088000 15.000000
1450 1 199.408000 10.581410 15.000000
1451 2 199.408000 11.360000 17.104598
1452 2 197.760000 12.853410 17.104598
1453 1 197.760000 13.632000 15.000000
1454 1 199.408000 15.125410 15.000000
1455 2 199.408000 15.904000 17.104598
1456 2 197.760000 17.397410 17.104598
1457 1 197.760000 18.176000 15.000000
1458 1 199.408000 19.669410 15.000000
1459 2 199.408000 20.448000 17.104598
1460 2 197.760000 21.941410 17.104598
1461 1 197.760000 22.720000 15.000000
1462 1 199.408000 24.213410 15.000000
1463 2 199.408000 24.992000 17.104598
1464 2 197.760000 26.485410 17.104598
1465 1 201.056000 0.000000 15.000000
1466 1 202.704000 1.493410 15.000000
1467 2 202.704000 2.272000 17.104598
1468 2 201.056000 3.765410 17.104598
1469 1 201.056000 4.544000 15.000000
1470 1 202.704000 6.037410 15.000000
1471 2 202.704000 6.816000 17.104598
1472 2 201.056000 8.309410 17.104598
1473 1 201.056000 9.088000 15.000000
1474 1 202.704000 10.581410 15.000000
1475 2 202.704000 11.360000 17.104598
1476 2 201.056000 12.853410 17.104598
1477 1 201.056000 13.632000 15.000000
1478 1 202.704000 15.125410 15.000000
1479 2 202.704000 15.904000 17.104598
1480 2 201.056000 17.397410 17.104598
1481 1 201.056000 18.176000 15.000000
1482 1 202.704000 19.669410 15.000000
1483 2 202.704000 20.448000 17.104598
1484 2 201.056000 21.941410 17.104598
1485 1 201.056000 22.720000 15.000000
1486 1 202.704000 24.213410 15.000000
1487 2 202.704000 24.992000 17.104598
1488 2 201.056000 26.485410 17.104598
1489 1 204.352000 0.000000 15.000000
1490 1 206.000000 1.493410 15.000000
1491 2 206.000000 2.272000 17.104598
1492 2 204.352000 3.765410 17.104598
1493 1 204.352000 4.544000 15.000000
1494 1 206.000000 6.037410 15.000000
1495 2 206.000000 6.816000 17.104598
1496 2 204.352000 8.309410 17.104598
1497 1 204.352000 9.088000 15.000000
1498 1 206.000000 10.581410 15.000000
1499 2 206.000000 11.360000 17.104598
1500 2 204.352000 12.853410 17.104598
1501 1 204.352000 13.632000 15.000000
1502 1 206.000000 15.125410 15.000000
1503 2 206.000000 15.904000 17.104598
1504 2 204.352000 17.397410 17.104598
1505 1 204.352000 18.176000 15.000000
1506 1 206.000000 19.669410 15.000000
1507 2 206.000000 20.448000 17.104598
1508 2 204.352000 21.941410 17.104598
1509 1 204.352000 22.720000 15.000000
1510 1 206.000000 24.213410 15.000000
1511 2 206.000000 24.992000 17.104598
1512 2 204.352000 26.485410 17.104598
1513 1 207.648000 0.000000 15.000000
1514 1 209.296000 1.493410 15.000000
1515 2 209.296000 2.272000 17.104598
1516 2 207.648000 3.765410 17.104598
1517 1 207.648000 4.544000 15.000000
1518 1 209.296000 6.037410 15.000000
1519 2 209.296000 6.816000 17.104598
1520 2 207.648000 8.309410 17.104598
1521 1 207.648000 9.088000 15.000000
1522 1 209.296000 10.581410 15.000000
1523 2 209.296000 11.360000 17.104598
1524 2 207.648000 12.853410 17.104598
1525 1 207.648000 13.632000 15.000000
1526 1 209.296000 15.125410 15.000000
1527 2 209.296000 15.904000 17.104598
1528 2 207.648000 17.397410 17.104598
1529 1 207.648000 18.176000 15.000000
1530 1 209.296000 19.669410 15.000000
1531 2 209.296000 20.448000 17.104598
1532 2 207.648000 21.941410 17.104598
1533 1 207.648000 22.720000 15.000000
1534 1 209.296000 24.213410 15.000000
1535 2 209.296000 24.992000 17.104598
1536 2 207.648000 26.485410 17.104598
1537 1 210.944000 0.000000 15.000000
1538 1 212.592000 1.493410 15.000000
1539 2 212.592000 2.272000 17.104598
1540 2 210.944000 3.765410 17.104598
1541 1 210.944000 4.544000 15.000000
1542 1 212.592000 6.037410 15.000000
1543 2 212.592000 6.816000 17.104598
1544 2 210.944000 8.309410 17.104598
1545 1 210.944000 9.088000 15.000000
1546 1 212.592000 10.581410 15.000000
1547 2 212.592000 11.360000 17.104598
1548 2 210.944000 12.853410 17.104598
1549 1 210.944000 13.632000 15.000000
1550 1 212.592000 15.125410 15.000000
1551 2 212.592000 15.904000 17.104598
1552 2 210.944000 17.397410 17.104598
1553 1 210.944000 18.176000 15.000000
1554 1 212.592000 19.669410 15.000000
1555 2 212.592000 20.448000 17.104598
1556 2 210.944000 21.941410 17.104598
1557 1 210.944000 22.720000 15.000000
1558 1 212.592000 24.213410 15.000000
1559 2 212.592000 24.992000 17.104598
1560 2 210.944000 26.485410 17.104598
1561 1 214.240000 0.000000 15.000000
1562 1 215.888000 1.493410 15.000000
1563 2 215.888000 2.272000 17.104598
1564 2 214.240000 3.765410 17.104598
1565 1 214.240000 4.544000 15.000000
1566 1 215.888000 6.037410 15.000000
1567 2 215.888000 6.816000 17.104598
1568 2 214.240000 8.309410 17.104598
1569 1 214.240000 9.088000 15.000000
1570 1 215.888000 10.581410 15.000000
1571 2 215.888000 11.360000 17.104598
1572 2 214.240000 12.853410 17.104598
1573 1 214.240000 13.632000 15.000000
1574 1 215.888000 15.125410 15.000000
1575 2 215.888000 15.904000 17.104598
1576 2 214.240000 17.397410 17.104598
1577 1 214.240000 18.176000 15.000000
1578 1 215.888000 19.669410 15.000000
1579 2 215.888000 20.448000 17.104598
1580 2 214.240000 21.941410 17.104598
1581 1 214.240000 22.720000 15.000000
1582 1 215.888000 24.213410 15.000000
1583 2 215.888000 24.992000 17.104598
1584 2 214.240000 26.485410 17.104598
1585 1 217.536000 0.000000 15.000000
1586 1 219.184000 1.493410 15.000000
1587 2 219.184000 2.272000 17.104598
1588 2 217.536000 3.765410 17.104598
1589 1 217.536000 4.544000 15.000000
1590 1 219.184000 6.037410 15.000000
1591 2 219.184000 6.816000 17.104598
1592 2 217.536000 8.309410 17.104598
1593 1 217.536000 9.088000 15.000000
1594 1 219.184000 10.581410 15.000000
1595 2 219.184000 11.360000 17.104598
1596 2 217.536000 12.853410 17.104598
1597 1 217.536000 13.632000 15.000000
1598 1 219.184000 15.125410 15.000000
1599 2 219.184000 15.904000 17.104598
1600 2 217.536000 17.397410 17.104598
1601 1 217.536000 18.176000 15.000000
1602 1 219.184000 19.669410 15.000000
1603 2 219.184000 20.448000 17.104598
1604 2 217.536000 21.941410 17.104598
1605 1 217.536000 22.720000 15.000000
1606 1 219.184000 24.213410 15.000000
1607 2 219.184000 24.992000 17.104598
1608 2 217.536000 26.485410 17.104598
1609 1 220.832000 0.000000 15.000000
1610 1 222.480000 1.493410 15.000000
1611 2 222.480000 2.272000 17.104598
1612 2 220.832000 3.765410 17.104598
1613 1 220.832000 4.544000 15.000000
1614 1 222.480000 6.037410 15.000000
1615 2 222.480000 6.816000 17.104598
1616 2 220.832000 8.309410 17.104598
1617 1 220.832000 9.088000 15.000000
1618 1 222.480000 10.581410 15.000000
1619 2 222.480000 11.360000 17.104598
1620 2 220.832000 12.853410 17.104598
1621 1 220.832000 13.632000 15.000000
1622 1 222.480000 15.125410 15.000000
1623 2 222.480000 15.904000 17.104598
1624 2 220.832000 17.397410 17.104598
1625 1 220.832000 18.176000 15.000000
1626 1 222.480000 19.669410 15.000000
1627 2 222.480000 20.448000 17.104598
1628 2 220.832000 21.941410 17.104598
1629 1 220.832000 22.720000 15.000000
1630 1 222.480000 24.213410 15.000000
1631 2 222.480000 24.992000 17.104598
1632 2 220.832000 26.485410 17.104598
