Monolayer black phosphorus (type1=B bottom pucker, type2=T top pucker)

4896 atoms
2 atom types

0.0 224.128000 xlo xhi
0.0 81.792000 ylo yhi
0.0 32.104598 zlo zhi

Masses

1 30.973762
2 30.973762

Atoms # atomic

1 1 0.000000 0.000000 15.000000
2 1 1.648000 1.493410 15.000000
3 2 1.648000 2.272000 17.104598
4 2 0.000000 3.765410 17.104598
5 1 0.000000 4.544000 15.000000
6 1 1.648000 6.037410 15.000000
7 2 1.648000 6.816000 17.104598
8 2 0.000000 8.309410 17.104598
9 1 0.000000 9.088000 15.000000
10 1 1.648000 10.581410 15.000000
11 2 1.648000 11.360000 17.104598
12 2 0.000000 12.853410 17.104598
13 1 0.000000 13.632000 15.000000
14 1 1.648000 15.125410 15.000000
15 2 1.648000 15.904000 17.104598
16 2 0.000000 17.397410 17.104598
17 1 0.000000 18.176000 15.000000
18 1 1.648000 19.669410 15.000000
19 2 1.648000 20.448000 17.104598
20 2 0.000000 21.941410 17.104598
21 1 0.000000 22.720000 15.000000
22 1 1.648000 24.213410 15.000000
23 2 1.648000 24.992000 17.104598
24 2 0.000000 26.485410 17.104598
25 1 0.000000 27.264000 15.000000
26 1 1.648000 28.757410 15.000000
27 2 1.648000 29.536000 17.104598
28 2 0.000000 31.029410 17.104598
29 1 0.000000 31.808000 15.000000
30 1 1.648000 33.301410 15.000000
31 2 1.648000 34.080000 17.104598
32 2 0.000000 35.573410 17.104598
33 1 0.000000 36.352000 15.000000
34 1 1.648000 37.845410 15.000000
35 2 1.648000 38.624000 17.104598
36 2 0.000000 40.117410 17.104598
37 1 0.000000 40.896000 15.000000
38 1 1.648000 42.389410 15.000000
39 2 1.648000 43.168000 17.104598
40 2 0.000000 44.661410 17.104598
41 1 0.000000 45.440000 15.000000
42 1 1.648000 46.933410 15.000000
43 2 1.648000 47.712000 17.104598
44 2 0.000000 49.205410 17.104598
45 1 0.000000 49.984000 15.000000
46 1 1.648000 51.477410 15.000000
47 2 1.648000 52.256000 17.104598
48 2 0.000000 53.749410 17.104598
49 1 0.000000 54.528000 15.000000
50 1 1.648000 56.021410 15.000000
51 2 1.648000 56.800000 17.104598
52 2 0.000000 58.293410 17.104598
53 1 0.000000 59.072000 15.000000
54 1 1.648000 60.565410 15.000000
55 2 1.648000 61.344000 17.104598
56 2 0.000000 62.837410 17.104598
57 1 0.000000 63.616000 15.000000
58 1 1.648000 65.109410 15.000000
59 2 1.648000 65.888000 17.104598
60 2 0.000000 67.381410 17.104598
61 1 0.000000 68.160000 15.000000
62 1 1.648000 69.653410 15.000000
63 2 1.648000 70.432000 17.104598
64 2 0.000000 71.925410 17.104598
65 1 0.000000 72.704000 15.000000
66 1 1.648000 74.197410 15.000000
67 2 1.648000 74.976000 17.104598
68 2 0.000000 76.469410 17.104598
69 1 0.000000 77.248000 15.000000
70 1 1.648000 78.741410 15.000000
71 2 1.648000 79.520000 17.104598
72 2 0.000000 81.013410 17.104598
73 1 3.296000 0.000000 15.000000
74 1 4.944000 1.493410 15.000000
75 2 4.944000 2.272000 17.104598
76 2 3.296000 3.765410 17.104598
77 1 3.296000 4.544000 15.000000
78 1 4.944000 6.037410 15.000000
79 2 4.944000 6.816000 17.104598
80 2 3.296000 8.309410 17.104598
81 1 3.296000 9.088000 15.000000
82 1 4.944000 10.581410 15.000000
83 2 4.944000 11.360000 17.104598
84 2 3.296000 12.853410 17.104598
85 1 3.296000 13.632000 15.000000
86 1 4.944000 15.125410 15.000000
87 2 4.944000 15.904000 17.104598
88 2 3.296000 17.397410 17.104598
89 1 3.296000 18.176000 15.000000
90 1 4.944000 19.669410 15.000000
91 2 4.944000 20.448000 17.104598
92 2 3.296000 21.941410 17.104598
93 1 3.296000 22.720000 15.000000
94 1 4.944000 24.213410 15.000000
95 2 4.944000 24.992000 17.104598
96 2 3.296000 26.485410 17.104598
97 1 3.296000 27.264000 15.000000
98 1 4.944000 28.757410 15.000000
99 2 4.944000 29.536000 17.104598
100 2 3.296000 31.029410 17.104598
101 1 3.296000 31.808000 15.000000
102 1 4.944000 33.301410 15.000000
103 2 4.944000 34.080000 17.104598
104 2 3.296000 35.573410 17.104598
105 1 3.296000 36.352000 15.000000
106 1 4.944000 37.845410 15.000000
107 2 4.944000 38.624000 17.104598
108 2 3.296000 40.117410 17.104598
109 1 3.296000 40.896000 15.000000
110 1 4.944000 42.389410 15.000000
111 2 4.944000 43.168000 17.104598
112 2 3.296000 44.661410 17.104598
113 1 3.296000 45.440000 15.000000
114 1 4.944000 46.933410 15.000000
115 2 4.944000 47.712000 17.104598
116 2 3.296000 49.205410 17.104598
117 1 3.296000 49.984000 15.000000
118 1 4.944000 51.477410 15.000000
119 2 4.944000 52.256000 17.104598
120 2 3.296000 53.749410 17.104598
121 1 3.296000 54.528000 15.000000
122 1 4.944000 56.021410 15.000000
123 2 4.944000 56.800000 17.104598
124 2 3.296000 58.293410 17.104598
125 1 3.296000 59.072000 15.000000
126 1 4.944000 60.565410 15.000000
127 2 4.944000 61.344000 17.104598
128 2 3.296000 62.837410 17.104598
129 1 3.296000 63.616000 15.000000
130 1 4.944000 65.109410 15.000000
131 2 4.944000 65.888000 17.104598
132 2 3.296000 67.381410 17.104598
133 1 3.296000 68.160000 15.000000
134 1 4.944000 69.653410 15.000000
135 2 4.944000 70.432000 17.104598
136 2 3.296000 71.925410 17.104598
137 1 3.296000 72.704000 15.000000
138 1 4.944000 74.197410 15.000000
139 2 4.944000 74.976000 17.104598
140 2 3.296000 76.469410 17.104598
141 1 3.296000 77.248000 15.000000
142 1 4.944000 78.741410 15.000000
143 2 4.944000 79.520000 17.104598
144 2 3.296000 81.013410 17.104598
145 1 6.592000 0.000000 15.000000
146 1 8.240000 1.493410 15.000000
147 2 8.240000 2.272000 17.104598
148 2 6.592000 3.765410 17.104598
149 1 6.592000 4.544000 15.000000
150 1 8.240000 6.037410 15.000000
151 2 8.240000 6.816000 17.104598
152 2 6.592000 8.309410 17.104598
153 1 6.592000 9.088000 15.000000
154 1 8.240000 10.581410 15.000000
155 2 8.240000 11.360000 17.104598
156 2 6.592000 12.853410 17.104598
157 1 6.592000 13.632000 15.000000
158 1 8.240000 15.125410 15.000000
159 2 8.240000 15.904000 17.104598
160 2 6.592000 17.397410 17.104598
161 1 6.592000 18.176000 15.000000
162 1 8.240000 19.669410 15.000000
163 2 8.240000 20.448000 17.104598
164 2 6.592000 21.941410 17.104598
165 1 6.592000 22.720000 15.000000
166 1 8.240000 24.213410 15.000000
167 2 8.240000 24.992000 17.104598
168 2 6.592000 26.485410 17.104598
169 1 6.592000 27.264000 15.000000
170 1 8.240000 28.757410 15.000000
171 2 8.240000 29.536000 17.104598
172 2 6.592000 31.029410 17.104598
173 1 6.592000 31.808000 15.000000
174 1 8.240000 33.301410 15.000000
175 2 8.240000 34.080000 17.104598
176 2 6.592000 35.573410 17.104598
177 1 6.592000 36.352000 15.000000
178 1 8.240000 37.845410 15.000000
179 2 8.240000 38.624000 17.104598
180 2 6.592000 40.117410 17.104598
181 1 6.592000 40.896000 15.000000
182 1 8.240000 42.389410 15.000000
183 2 8.240000 43.168000 17.104598
184 2 6.592000 44.661410 17.104598
185 1 6.592000 45.440000 15.000000
186 1 8.240000 46.933410 15.000000
187 2 8.240000 47.712000 17.104598
188 2 6.592000 49.205410 17.104598
189 1 6.592000 49.984000 15.000000
190 1 8.240000 51.477410 15.000000
191 2 8.240000 52.256000 17.104598
192 2 6.592000 53.749410 17.104598
193 1 6.592000 54.528000 15.000000
194 1 8.240000 56.021410 15.000000
195 2 8.240000 56.800000 17.104598
196 2 6.592000 58.293410 17.104598
197 1 6.592000 59.072000 15.000000
198 1 8.240000 60.565410 15.000000
199 2 8.240000 61.344000 17.104598
200 2 6.592000 62.837410 17.104598
201 1 6.592000 63.616000 15.000000
202 1 8.240000 65.109410 15.000000
203 2 8.240000 65.888000 17.104598
204 2 6.592000 67.381410 17.104598
205 1 6.592000 68.160000 15.000000
206 1 8.240000 69.653410 15.000000
207 2 8.240000 70.432000 17.104598
208 2 6.592000 71.925410 17.104598
209 1 6.592000 72.704000 15.000000
210 1 8.240000 74.197410 15.000000
211 2 8.240000 74.976000 17.104598
212 2 6.592000 76.469410 17.104598
213 1 6.592000 77.248000 15.000000
214 1 8.240000 78.741410 15.000000
215 2 8.240000 79.520000 17.104598
216 2 6.592000 81.013410 17.104598
217 1 9.888000 0.000000 15.000000
218 1 11.536000 1.493410 15.000000
219 2 11.536000 2.272000 17.104598
220 2 9.888000 3.765410 17.104598
221 1 9.888000 4.544000 15.000000
222 1 11.536000 6.037410 15.000000
223 2 11.536000 6.816000 17.104598
224 2 9.888000 8.309410 17.104598
225 1 9.888000 9.088000 15.000000
226 1 11.536000 10.581410 15.000000
227 2 11.536000 11.360000 17.104598
228 2 9.888000 12.853410 17.104598
229 1 9.888000 13.632000 15.000000
230 1 11.536000 15.125410 15.000000
231 2 11.536000 15.904000 17.104598
232 2 9.888000 17.397410 17.104598
233 1 9.888000 18.176000 15.000000
234 1 11.536000 19.669410 15.000000
235 2 11.536000 20.448000 17.104598
236 2 9.888000 21.941410 17.104598
237 1 9.888000 22.720000 15.000000
238 1 11.536000 24.213410 15.000000
239 2 11.536000 24.992000 17.104598
240 2 9.888000 26.485410 17.104598
241 1 9.888000 27.264000 15.000000
242 1 11.536000 28.757410 15.000000
243 2 11.536000 29.536000 17.104598
244 2 9.888000 31.029410 17.104598
245 1 9.888000 31.808000 15.000000
246 1 11.536000 33.301410 15.000000
247 2 11.536000 34.080000 17.104598
248 2 9.888000 35.573410 17.104598
249 1 9.888000 36.352000 15.000000
250 1 11.536000 37.845410 15.000000
251 2 11.536000 38.624000 17.104598
252 2 9.888000 40.117410 17.104598
253 1 9.888000 40.896000 15.000000
254 1 11.536000 42.389410 15.000000
255 2 11.536000 43.168000 17.104598
256 2 9.888000 44.661410 17.104598
257 1 9.888000 45.440000 15.000000
258 1 11.536000 46.933410 15.000000
259 2 11.536000 47.712000 17.104598
260 2 9.888000 49.205410 17.104598
261 1 9.888000 49.984000 15.000000
262 1 11.536000 51.477410 15.000000
263 2 11.536000 52.256000 17.104598
264 2 9.888000 53.749410 17.104598
265 1 9.888000 54.528000 15.000000
266 1 11.536000 56.021410 15.000000
267 2 11.536000 56.800000 17.104598
268 2 9.888000 58.293410 17.104598
269 1 9.888000 59.072000 15.000000
270 1 11.536000 60.565410 15.000000
271 2 11.536000 61.344000 17.104598
272 2 9.888000 62.837410 17.104598
273 1 9.888000 63.616000 15.000000
274 1 11.536000 65.109410 15.000000
275 2 11.536000 65.888000 17.104598
276 2 9.888000 67.381410 17.104598
277 1 9.888000 68.160000 15.000000
278 1 11.536000 69.653410 15.000000
279 2 11.536000 70.432000 17.104598
280 2 9.888000 71.925410 17.104598
281 1 9.888000 72.704000 15.000000
282 1 11.536000 74.197410 15.000000
283 2 11.536000 74.976000 17.104598
284 2 9.888000 76.469410 17.104598
285 1 9.888000 77.248000 15.000000
286 1 11.536000 78.741410 15.000000
287 2 11.536000 79.520000 17.104598
288 2 9.888000 81.013410 17.104598
289 1 13.184000 0.000000 15.000000
290 1 14.832000 1.493410 15.000000
291 2 14.832000 2.272000 17.104598
292 2 13.184000 3.765410 17.104598
293 1 13.184000 4.544000 15.000000
294 1 14.832000 6.037410 15.000000
295 2 14.832000 6.816000 17.104598
296 2 13.184000 8.309410 17.104598
297 1 13.184000 9.088000 15.000000
298 1 14.832000 10.581410 15.000000
299 2 14.832000 11.360000 17.104598
300 2 13.184000 12.853410 17.104598
301 1 13.184000 13.632000 15.000000
302 1 14.832000 15.125410 15.000000
303 2 14.832000 15.904000 17.104598
304 2 13.184000 17.397410 17.104598
305 1 13.184000 18.176000 15.000000
306 1 14.832000 19.669410 15.000000
307 2 14.832000 20.448000 17.104598
308 2 13.184000 21.941410 17.104598
309 1 13.184000 22.720000 15.000000
310 1 14.832000 24.213410 15.000000
311 2 14.832000 24.992000 17.104598
312 2 13.184000 26.485410 17.104598
313 1 13.184000 27.264000 15.000000
314 1 14.832000 28.757410 15.000000
315 2 14.832000 29.536000 17.104598
316 2 13.184000 31.029410 17.104598
317 1 13.184000 31.808000 15.000000
318 1 14.832000 33.301410 15.000000
319 2 14.832000 34.080000 17.104598
320 2 13.184000 35.573410 17.104598
321 1 13.184000 36.352000 15.000000
322 1 14.832000 37.845410 15.000000
323 2 14.832000 38.624000 17.104598
324 2 13.184000 40.117410 17.104598
325 1 13.184000 40.896000 15.000000
326 1 14.832000 42.389410 15.000000
327 2 14.832000 43.168000 17.104598
328 2 13.184000 44.661410 17.104598
329 1 13.184000 45.440000 15.000000
330 1 14.832000 46.933410 15.000000
331 2 14.832000 47.712000 17.104598
332 2 13.184000 49.205410 17.104598
333 1 13.184000 49.984000 15.000000
334 1 14.832000 51.477410 15.000000
335 2 14.832000 52.256000 17.104598
336 2 13.184000 53.749410 17.104598
337 1 13.184000 54.528000 15.000000
338 1 14.832000 56.021410 15.000000
339 2 14.832000 56.800000 17.104598
340 2 13.184000 58.293410 17.104598
341 1 13.184000 59.072000 15.000000
342 1 14.832000 60.565410 15.000000
343 2 14.832000 61.344000 17.104598
344 2 13.184000 62.837410 17.104598
345 1 13.184000 63.616000 15.000000
346 1 14.832000 65.109410 15.000000
347 2 14.832000 65.888000 17.104598
348 2 13.184000 67.381410 17.104598
349 1 13.184000 68.160000 15.000000
350 1 14.832000 69.653410 15.000000
351 2 14.832000 70.432000 17.104598
352 2 13.184000 71.925410 17.104598
353 1 13.184000 72.704000 15.000000
354 1 14.832000 74.197410 15.000000
355 2 14.832000 74.976000 17.104598
356 2 13.184000 76.469410 17.104598
357 1 13.184000 77.248000 15.000000
358 1 14.832000 78.741410 15.000000
359 2 14.832000 79.520000 17.104598
360 2 13.184000 81.013410 17.104598
361 1 16.480000 0.000000 15.000000
362 1 18.128000 1.493410 15.000000
363 2 18.128000 2.272000 17.104598
364 2 16.480000 3.765410 17.104598
365 1 16.480000 4.544000 15.000000
366 1 18.128000 6.037410 15.000000
367 2 18.128000 6.816000 17.104598
368 2 16.480000 8.309410 17.104598
369 1 16.480000 9.088000 15.000000
370 1 18.128000 10.581410 15.000000
371 2 18.128000 11.360000 17.104598
372 2 16.480000 12.853410 17.104598
373 1 16.480000 13.632000 15.000000
374 1 18.128000 15.125410 15.000000
375 2 18.128000 15.904000 17.104598
376 2 16.480000 17.397410 17.104598
377 1 16.480000 18.176000 15.000000
378 1 18.128000 19.669410 15.000000
379 2 18.128000 20.448000 17.104598
380 2 16.480000 21.941410 17.104598
381 1 16.480000 22.720000 15.000000
382 1 18.128000 24.213410 15.000000
383 2 18.128000 24.992000 17.104598
384 2 16.480000 26.485410 17.104598
385 1 16.480000 27.264000 15.000000
386 1 18.128000 28.757410 15.000000
387 2 18.128000 29.536000 17.104598
388 2 16.480000 31.029410 17.104598
389 1 16.480000 31.808000 15.000000
390 1 18.128000 33.301410 15.000000
391 2 18.128000 34.080000 17.104598
392 2 16.480000 35.573410 17.104598
393 1 16.480000 36.352000 15.000000
394 1 18.128000 37.845410 15.000000
395 2 18.128000 38.624000 17.104598
396 2 16.480000 40.117410 17.104598
397 1 16.480000 40.896000 15.000000
398 1 18.128000 42.389410 15.000000
399 2 18.128000 43.168000 17.104598
400 2 16.480000 44.661410 17.104598
401 1 16.480000 45.440000 15.000000
402 1 18.128000 46.933410 15.000000
403 2 18.128000 47.712000 17.104598
404 2 16.480000 49.205410 17.104598
405 1 16.480000 49.984000 15.000000
406 1 18.128000 51.477410 15.000000
407 2 18.128000 52.256000 17.104598
408 2 16.480000 53.749410 17.104598
409 1 16.480000 54.528000 15.000000
410 1 18.128000 56.021410 15.000000
411 2 18.128000 56.800000 17.104598
412 2 16.480000 58.293410 17.104598
413 1 16.480000 59.072000 15.000000
414 1 18.128000 60.565410 15.000000
415 2 18.128000 61.344000 17.104598
416 2 16.480000 62.837410 17.104598
417 1 16.480000 63.616000 15.000000
418 1 18.128000 65.109410 15.000000
419 2 18.128000 65.888000 17.104598
420 2 16.480000 67.381410 17.104598
421 1 16.480000 68.160000 15.000000
422 1 18.128000 69.653410 15.000000
423 2 18.128000 70.432000 17.104598
424 2 16.480000 71.925410 17.104598
425 1 16.480000 72.704000 15.000000
426 1 18.128000 74.197410 15.000000
427 2 18.128000 74.976000 17.104598
428 2 16.480000 76.469410 17.104598
429 1 16.480000 77.248000 15.000000
430 1 18.128000 78.741410 15.000000
431 2 18.128000 79.520000 17.104598
432 2 16.480000 81.013410 17.104598
433 1 19.776000 0.000000 15.000000
434 1 21.424000 1.493410 15.000000
435 2 21.424000 2.272000 17.104598
436 2 19.776000 3.765410 17.104598
437 1 19.776000 4.544000 15.000000
438 1 21.424000 6.037410 15.000000
439 2 21.424000 6.816000 17.104598
440 2 19.776000 8.309410 17.104598
441 1 19.776000 9.088000 15.000000
442 1 21.424000 10.581410 15.000000
443 2 21.424000 11.360000 17.104598
444 2 19.776000 12.853410 17.104598
445 1 19.776000 13.632000 15.000000
446 1 21.424000 15.125410 15.000000
447 2 21.424000 15.904000 17.104598
448 2 19.776000 17.397410 17.104598
449 1 19.776000 18.176000 15.000000
450 1 21.424000 19.669410 15.000000
451 2 21.424000 20.448000 17.104598
452 2 19.776000 21.941410 17.104598
453 1 19.776000 22.720000 15.000000
454 1 21.424000 24.213410 15.000000
455 2 21.424000 24.992000 17.104598
456 2 19.776000 26.485410 17.104598
457 1 19.776000 27.264000 15.000000
458 1 21.424000 28.757410 15.000000
459 2 21.424000 29.536000 17.104598
460 2 19.776000 31.029410 17.104598
461 1 19.776000 31.808000 15.000000
462 1 21.424000 33.301410 15.000000
463 2 21.424000 34.080000 17.104598
464 2 19.776000 35.573410 17.104598
465 1 19.776000 36.352000 15.000000
466 1 21.424000 37.845410 15.000000
467 2 21.424000 38.624000 17.104598
468 2 19.776000 40.117410 17.104598
469 1 19.776000 40.896000 15.000000
470 1 21.424000 42.389410 15.000000
471 2 21.424000 43.168000 17.104598
472 2 19.776000 44.661410 17.104598
473 1 19.776000 45.440000 15.000000
474 1 21.424000 46.933410 15.000000
475 2 21.424000 47.712000 17.104598
476 2 19.776000 49.205410 17.104598
477 1 19.776000 49.984000 15.000000
478 1 21.424000 51.477410 15.000000
479 2 21.424000 52.256000 17.104598
480 2 19.776000 53.749410 17.104598
481 1 19.776000 54.528000 15.000000
482 1 21.424000 56.021410 15.000000
483 2 21.424000 56.800000 17.104598
484 2 19.776000 58.293410 17.104598
485 1 19.776000 59.072000 15.000000
486 1 21.424000 60.565410 15.000000
487 2 21.424000 61.344000 17.104598
488 2 19.776000 62.837410 17.104598
489 1 19.776000 63.616000 15.000000
490 1 21.424000 65.109410 15.000000
491 2 21.424000 65.888000 17.104598
492 2 19.776000 67.381410 17.104598
493 1 19.776000 68.160000 15.000000
494 1 21.424000 69.653410 15.000000
495 2 21.424000 70.432000 17.104598
496 2 19.776000 71.925410 17.104598
497 1 19.776000 72.704000 15.000000
498 1 21.424000 74.197410 15.000000
499 2 21.424000 74.976000 17.104598
500 2 19.776000 76.469410 17.104598
501 1 19.776000 77.248000 15.000000
502 1 21.424000 78.741410 15.000000
503 2 21.424000 79.520000 17.104598
504 2 19.776000 81.013410 17.104598
505 1 23.072000 0.000000 15.000000
506 1 24.720000 1.493410 15.000000
507 2 24.720000 2.272000 17.104598
508 2 23.072000 3.765410 17.104598
509 1 23.072000 4.544000 15.000000
510 1 24.720000 6.037410 15.000000
511 2 24.720000 6.816000 17.104598
512 2 23.072000 8.309410 17.104598
513 1 23.072000 9.088000 15.000000
514 1 24.720000 10.581410 15.000000
515 2 24.720000 11.360000 17.104598
516 2 23.072000 12.853410 17.104598
517 1 23.072000 13.632000 15.000000
518 1 24.720000 15.125410 15.000000
519 2 24.720000 15.904000 17.104598
520 2 23.072000 17.397410 17.104598
521 1 23.072000 18.176000 15.000000
522 1 24.720000 19.669410 15.000000
523 2 24.720000 20.448000 17.104598
524 2 23.072000 21.941410 17.104598
525 1 23.072000 22.720000 15.000000
526 1 24.720000 24.213410 15.000000
527 2 24.720000 24.992000 17.104598
528 2 23.072000 26.485410 17.104598
529 1 23.072000 27.264000 15.000000
530 1 24.720000 28.757410 15.000000
531 2 24.720000 29.536000 17.104598
532 2 23.072000 31.029410 17.104598
533 1 23.072000 31.808000 15.000000
534 1 24.720000 33.301410 15.000000
535 2 24.720000 34.080000 17.104598
536 2 23.072000 35.573410 17.104598
537 1 23.072000 36.352000 15.000000
538 1 24.720000 37.845410 15.000000
539 2 24.720000 38.624000 17.104598
540 2 23.072000 40.117410 17.104598
541 1 23.072000 40.896000 15.000000
542 1 24.720000 42.389410 15.000000
543 2 24.720000 43.168000 17.104598
544 2 23.072000 44.661410 17.104598
545 1 23.072000 45.440000 15.000000
546 1 24.720000 46.933410 15.000000
547 2 24.720000 47.712000 17.104598
548 2 23.072000 49.205410 17.104598
549 1 23.072000 49.984000 15.000000
550 1 24.720000 51.477410 15.000000
551 2 24.720000 52.256000 17.104598
552 2 23.072000 53.749410 17.104598
553 1 23.072000 54.528000 15.000000
554 1 24.720000 56.021410 15.000000
555 2 24.720000 56.800000 17.104598
556 2 23.072000 58.293410 17.104598
557 1 23.072000 59.072000 15.000000
558 1 24.720000 60.565410 15.000000
559 2 24.720000 61.344000 17.104598
560 2 23.072000 62.837410 17.104598
561 1 23.072000 63.616000 15.000000
562 1 24.720000 65.109410 15.000000
563 2 24.720000 65.888000 17.104598
564 2 23.072000 67.381410 17.104598
565 1 23.072000 68.160000 15.000000
566 1 24.720000 69.653410 15.000000
567 2 24.720000 70.432000 17.104598
568 2 23.072000 71.925410 17.104598
569 1 23.072000 72.704000 15.000000
570 1 24.720000 74.197410 15.000000
571 2 24.720000 74.976000 17.104598
572 2 23.072000 76.469410 17.104598
573 1 23.072000 77.248000 15.000000
574 1 24.720000 78.741410 15.000000
575 2 24.720000 79.520000 17.104598
576 2 23.072000 81.013410 17.104598
577 1 26.368000 0.000000 15.000000
578 1 28.016000 1.493410 15.000000
579 2 28.016000 2.272000 17.104598
580 2 26.368000 3.765410 17.104598
581 1 26.368000 4.544000 15.000000
582 1 28.016000 6.037410 15.000000
583 2 28.016000 6.816000 17.104598
584 2 26.368000 8.309410 17.104598
585 1 26.368000 9.088000 15.000000
586 1 28.016000 10.581410 15.000000
587 2 28.016000 11.360000 17.104598
588 2 26.368000 12.853410 17.104598
589 1 26.368000 13.632000 15.000000
590 1 28.016000 15.125410 15.000000
591 2 28.016000 15.904000 17.104598
592 2 26.368000 17.397410 17.104598
593 1 26.368000 18.176000 15.000000
594 1 28.016000 19.669410 15.000000
595 2 28.016000 20.448000 17.104598
596 2 26.368000 21.941410 17.104598
597 1 26.368000 22.720000 15.000000
598 1 28.016000 24.213410 15.000000
599 2 28.016000 24.992000 17.104598
600 2 26.368000 26.485410 17.104598
601 1 26.368000 27.264000 15.000000
602 1 28.016000 28.757410 15.000000
603 2 28.016000 29.536000 17.104598
604 2 26.368000 31.029410 17.104598
605 1 26.368000 31.808000 15.000000
606 1 28.016000 33.301410 15.000000
607 2 28.016000 34.080000 17.104598
608 2 26.368000 35.573410 17.104598
609 1 26.368000 36.352000 15.000000
610 1 28.016000 37.845410 15.000000
611 2 28.016000 38.624000 17.104598
612 2 26.368000 40.117410 17.104598
613 1 26.368000 40.896000 15.000000
614 1 28.016000 42.389410 15.000000
615 2 28.016000 43.168000 17.104598
616 2 26.368000 44.661410 17.104598
617 1 26.368000 45.440000 15.000000
618 1 28.016000 46.933410 15.000000
619 2 28.016000 47.712000 17.104598
620 2 26.368000 49.205410 17.104598
621 1 26.368000 49.984000 15.000000
622 1 28.016000 51.477410 15.000000
623 2 28.016000 52.256000 17.104598
624 2 26.368000 53.749410 17.104598
625 1 26.368000 54.528000 15.000000
626 1 28.016000 56.021410 15.000000
627 2 28.016000 56.800000 17.104598
628 2 26.368000 58.293410 17.104598
629 1 26.368000 59.072000 15.000000
630 1 28.016000 60.565410 15.000000
631 2 28.016000 61.344000 17.104598
632 2 26.368000 62.837410 17.104598
633 1 26.368000 63.616000 15.000000
634 1 28.016000 65.109410 15.000000
635 2 28.016000 65.888000 17.104598
636 2 26.368000 67.381410 17.104598
637 1 26.368000 68.160000 15.000000
638 1 28.016000 69.653410 15.000000
639 2 28.016000 70.432000 17.104598
640 2 26.368000 71.925410 17.104598
641 1 26.368000 72.704000 15.000000
642 1 28.016000 74.197410 15.000000
643 2 28.016000 74.976000 17.104598
644 2 26.368000 76.469410 17.104598
645 1 26.368000 77.248000 15.000000
646 1 28.016000 78.741410 15.000000
647 2 28.016000 79.520000 17.104598
648 2 26.368000 81.013410 17.104598
649 1 29.664000 0.000000 15.000000
650 1 31.312000 1.493410 15.000000
651 2 31.312000 2.272000 17.104598
652 2 29.664000 3.765410 17.104598
653 1 29.664000 4.544000 15.000000
654 1 31.312000 6.037410 15.000000
655 2 31.312000 6.816000 17.104598
656 2 29.664000 8.309410 17.104598
657 1 29.664000 9.088000 15.000000
658 1 31.312000 10.581410 15.000000
659 2 31.312000 11.360000 17.104598
660 2 29.664000 12.853410 17.104598
661 1 29.664000 13.632000 15.000000
662 1 31.312000 15.125410 15.000000
663 2 31.312000 15.904000 17.104598
664 2 29.664000 17.397410 17.104598
665 1 29.664000 18.176000 15.000000
666 1 31.312000 19.669410 15.000000
667 2 31.312000 20.448000 17.104598
668 2 29.664000 21.941410 17.104598
669 1 29.664000 22.720000 15.000000
670 1 31.312000 24.213410 15.000000
671 2 31.312000 24.992000 17.104598
672 2 29.664000 26.485410 17.104598
673 1 29.664000 27.264000 15.000000
674 1 31.312000 28.757410 15.000000
675 2 31.312000 29.536000 17.104598
676 2 29.664000 31.029410 17.104598
677 1 29.664000 31.808000 15.000000
678 1 31.312000 33.301410 15.000000
679 2 31.312000 34.080000 17.104598
680 2 29.664000 35.573410 17.104598
681 1 29.664000 36.352000 15.000000
682 1 31.312000 37.845410 15.000000
683 2 31.312000 38.624000 17.104598
684 2 29.664000 40.117410 17.104598
685 1 29.664000 40.896000 15.000000
686 1 31.312000 42.389410 15.000000
687 2 31.312000 43.168000 17.104598
688 2 29.664000 44.661410 17.104598
689 1 29.664000 45.440000 15.000000
690 1 31.312000 46.933410 15.000000
691 2 31.312000 47.712000 17.104598
692 2 29.664000 49.205410 17.104598
693 1 29.664000 49.984000 15.000000
694 1 31.312000 51.477410 15.000000
695 2 31.312000 52.256000 17.104598
696 2 29.664000 53.749410 17.104598
697 1 29.664000 54.528000 15.000000
698 1 31.312000 56.021410 15.000000
699 2 31.312000 56.800000 17.104598
700 2 29.664000 58.293410 17.104598
701 1 29.664000 59.072000 15.000000
702 1 31.312000 60.565410 15.000000
703 2 31.312000 61.344000 17.104598
704 2 29.664000 62.837410 17.104598
705 1 29.664000 63.616000 15.000000
706 1 31.312000 65.109410 15.000000
707 2 31.312000 65.888000 17.104598
708 2 29.664000 67.381410 17.104598
709 1 29.664000 68.160000 15.000000
710 1 31.312000 69.653410 15.000000
711 2 31.312000 70.432000 17.104598
712 2 29.664000 71.925410 17.104598
713 1 29.664000 72.704000 15.000000
714 1 31.312000 74.197410 15.000000
715 2 31.312000 74.976000 17.104598
716 2 29.664000 76.469410 17.104598
717 1 29.664000 77.248000 15.000000
718 1 31.312000 78.741410 15.000000
719 2 31.312000 79.520000 17.104598
720 2 29.664000 81.013410 17.104598
721 1 32.960000 0.000000 15.000000
722 1 34.608000 1.493410 15.000000
723 2 34.608000 2.272000 17.104598
724 2 32.960000 3.765410 17.104598
725 1 32.960000 4.544000 15.000000
726 1 34.608000 6.037410 15.000000
727 2 34.608000 6.816000 17.104598
728 2 32.960000 8.309410 17.104598
729 1 32.960000 9.088000 15.000000
730 1 34.608000 10.581410 15.000000
731 2 34.608000 11.360000 17.104598
732 2 32.960000 12.853410 17.104598
733 1 32.960000 13.632000 15.000000
734 1 34.608000 15.125410 15.000000
735 2 34.608000 15.904000 17.104598
736 2 32.960000 17.397410 17.104598
737 1 32.960000 18.176000 15.000000
738 1 34.608000 19.669410 15.000000
739 2 34.608000 20.448000 17.104598
740 2 32.960000 21.941410 17.104598
741 1 32.960000 22.720000 15.000000
742 1 34.608000 24.213410 15.000000
743 2 34.608000 24.992000 17.104598
744 2 32.960000 26.485410 17.104598
745 1 32.960000 27.264000 15.000000
746 1 34.608000 28.757410 15.000000
747 2 34.608000 29.536000 17.104598
748 2 32.960000 31.029410 17.104598
749 1 32.960000 31.808000 15.000000
750 1 34.608000 33.301410 15.000000
751 2 34.608000 34.080000 17.104598
752 2 32.960000 35.573410 17.104598
753 1 32.960000 36.352000 15.000000
754 1 34.608000 37.845410 15.000000
755 2 34.608000 38.624000 17.104598
756 2 32.960000 40.117410 17.104598
757 1 32.960000 40.896000 15.000000
758 1 34.608000 42.389410 15.000000
759 2 34.608000 43.168000 17.104598
760 2 32.960000 44.661410 17.104598
761 1 32.960000 45.440000 15.000000
762 1 34.608000 46.933410 15.000000
763 2 34.608000 47.712000 17.104598
764 2 32.960000 49.205410 17.104598
765 1 32.960000 49.984000 15.000000
766 1 34.608000 51.477410 15.000000
767 2 34.608000 52.256000 17.104598
768 2 32.960000 53.749410 17.104598
769 1 32.960000 54.528000 15.000000
770 1 34.608000 56.021410 15.000000
771 2 34.608000 56.800000 17.104598
772 2 32.960000 58.293410 17.104598
773 1 32.960000 59.072000 15.000000
774 1 34.608000 60.565410 15.000000
775 2 34.608000 61.344000 17.104598
776 2 32.960000 62.837410 17.104598
777 1 32.960000 63.616000 15.000000
778 1 34.608000 65.109410 15.000000
779 2 34.608000 65.888000 17.104598
780 2 32.960000 67.381410 17.104598
781 1 32.960000 68.160000 15.000000
782 1 34.608000 69.653410 15.000000
783 2 34.608000 70.432000 17.104598
784 2 32.960000 71.925410 17.104598
785 1 32.960000 72.704000 15.000000
786 1 34.608000 74.197410 15.000000
787 2 34.608000 74.976000 17.104598
788 2 32.960000 76.469410 17.104598
789 1 32.960000 77.248000 15.000000
790 1 34.608000 78.741410 15.000000
791 2 34.608000 79.520000 17.104598
792 2 32.960000 81.013410 17.104598
793 1 36.256000 0.000000 15.000000
794 1 37.904000 1.493410 15.000000
795 2 37.904000 2.272000 17.104598
796 2 36.256000 3.765410 17.104598
797 1 36.256000 4.544000 15.000000
798 1 37.904000 6.037410 15.000000
799 2 37.904000 6.816000 17.104598
800 2 36.256000 8.309410 17.104598
801 1 36.256000 9.088000 15.000000
802 1 37.904000 10.581410 15.000000
803 2 37.904000 11.360000 17.104598
804 2 36.256000 12.853410 17.104598
805 1 36.256000 13.632000 15.000000
806 1 37.904000 15.125410 15.000000
807 2 37.904000 15.904000 17.104598
808 2 36.256000 17.397410 17.104598
809 1 36.256000 18.176000 15.000000
810 1 37.904000 19.669410 15.000000
811 2 37.904000 20.448000 17.104598
812 2 36.256000 21.941410 17.104598
813 1 36.256000 22.720000 15.000000
814 1 37.904000 24.213410 15.000000
815 2 37.904000 24.992000 17.104598
816 2 36.256000 26.485410 17.104598
817 1 36.256000 27.264000 15.000000
818 1 37.904000 28.757410 15.000000
819 2 37.904000 29.536000 17.104598
820 2 36.256000 31.029410 17.104598
821 1 36.256000 31.808000 15.000000
822 1 37.904000 33.301410 15.000000
823 2 37.904000 34.080000 17.104598
824 2 36.256000 35.573410 17.104598
825 1 36.256000 36.352000 15.000000
826 1 37.904000 37.845410 15.000000
827 2 37.904000 38.624000 17.104598
828 2 36.256000 40.117410 17.104598
829 1 36.256000 40.896000 15.000000
830 1 37.904000 42.389410 15.000000
831 2 37.904000 43.168000 17.104598
832 2 36.256000 44.661410 17.104598
833 1 36.256000 45.440000 15.000000
834 1 37.904000 46.933410 15.000000
835 2 37.904000 47.712000 17.104598
836 2 36.256000 49.205410 17.104598
837 1 36.256000 49.984000 15.000000
838 1 37.904000 51.477410 15.000000
839 2 37.904000 52.256000 17.104598
840 2 36.256000 53.749410 17.104598
841 1 36.256000 54.528000 15.000000
842 1 37.904000 56.021410 15.000000
843 2 37.904000 56.800000 17.104598
844 2 36.256000 58.293410 17.104598
845 1 36.256000 59.072000 15.000000
846 1 37.904000 60.565410 15.000000
847 2 37.904000 61.344000 17.104598
848 2 36.256000 62.837410 17.104598
849 1 36.256000 63.616000 15.000000
850 1 37.904000 65.109410 15.000000
851 2 37.904000 65.888000 17.104598
852 2 36.256000 67.381410 17.104598
853 1 36.256000 68.160000 15.000000
854 1 37.904000 69.653410 15.000000
855 2 37.904000 70.432000 17.104598
856 2 36.256000 71.925410 17.104598
857 1 36.256000 72.704000 15.000000
858 1 37.904000 74.197410 15.000000
859 2 37.904000 74.976000 17.104598
860 2 36.256000 76.469410 17.104598
861 1 36.256000 77.248000 15.000000
862 1 37.904000 78.741410 15.000000
863 2 37.904000 79.520000 17.104598
864 2 36.256000 81.013410 17.104598
865 1 39.552000 0.000000 15.000000
866 1 41.200000 1.493410 15.000000
867 2 41.200000 2.272000 17.104598
868 2 39.552000 3.765410 17.104598
869 1 39.552000 4.544000 15.000000
870 1 41.200000 6.037410 15.000000
871 2 41.200000 6.816000 17.104598
872 2 39.552000 8.309410 17.104598
873 1 39.552000 9.088000 15.000000
874 1 41.200000 10.581410 15.000000
875 2 41.200000 11.360000 17.104598
876 2 39.552000 12.853410 17.104598
877 1 39.552000 13.632000 15.000000
878 1 41.200000 15.125410 15.000000
879 2 41.200000 15.904000 17.104598
880 2 39.552000 17.397410 17.104598
881 1 39.552000 18.176000 15.000000
882 1 41.200000 19.669410 15.000000
883 2 41.200000 20.448000 17.104598
884 2 39.552000 21.941410 17.104598
885 1 39.552000 22.720000 15.000000
886 1 41.200000 24.213410 15.000000
887 2 41.200000 24.992000 17.104598
888 2 39.552000 26.485410 17.104598
889 1 39.552000 27.264000 15.000000
890 1 41.200000 28.757410 15.000000
891 2 41.200000 29.536000 17.104598
892 2 39.552000 31.029410 17.104598
893 1 39.552000 31.808000 15.000000
894 1 41.200000 33.301410 15.000000
895 2 41.200000 34.080000 17.104598
896 2 39.552000 35.573410 17.104598
897 1 39.552000 36.352000 15.000000
898 1 41.200000 37.845410 15.000000
899 2 41.200000 38.624000 17.104598
900 2 39.552000 40.117410 17.104598
901 1 39.552000 40.896000 15.000000
902 1 41.200000 42.389410 15.000000
903 2 41.200000 43.168000 17.104598
904 2 39.552000 44.661410 17.104598
905 1 39.552000 45.440000 15.000000
906 1 41.200000 46.933410 15.000000
907 2 41.200000 47.712000 17.104598
908 2 39.552000 49.205410 17.104598
909 1 39.552000 49.984000 15.000000
910 1 41.200000 51.477410 15.000000
911 2 41.200000 52.256000 17.104598
912 2 39.552000 53.749410 17.104598
913 1 39.552000 54.528000 15.000000
914 1 41.200000 56.021410 15.000000
915 2 41.200000 56.800000 17.104598
916 2 39.552000 58.293410 17.104598
917 1 39.552000 59.072000 15.000000
918 1 41.200000 60.565410 15.000000
919 2 41.200000 61.344000 17.104598
920 2 39.552000 62.837410 17.104598
921 1 39.552000 63.616000 15.000000
922 1 41.200000 65.109410 15.000000
923 2 41.200000 65.888000 17.104598
924 2 39.552000 67.381410 17.104598
925 1 39.552000 68.160000 15.000000
926 1 41.200000 69.653410 15.000000
927 2 41.200000 70.432000 17.104598
928 2 39.552000 71.925410 17.104598
929 1 39.552000 72.704000 15.000000
930 1 41.200000 74.197410 15.000000
931 2 41.200000 74.976000 17.104598
932 2 39.552000 76.469410 17.104598
933 1 39.552000 77.248000 15.000000
934 1 41.200000 78.741410 15.000000
935 2 41.200000 79.520000 17.104598
936 2 39.552000 81.013410 17.104598
937 1 42.848000 0.000000 15.000000
938 1 44.496000 1.493410 15.000000
939 2 44.496000 2.272000 17.104598
940 2 42.848000 3.765410 17.104598
941 1 42.848000 4.544000 15.000000
942 1 44.496000 6.037410 15.000000
943 2 44.496000 6.816000 17.104598
944 2 42.848000 8.309410 17.104598
945 1 42.848000 9.088000 15.000000
946 1 44.496000 10.581410 15.000000
947 2 44.496000 11.360000 17.104598
948 2 42.848000 12.853410 17.104598
949 1 42.848000 13.632000 15.000000
950 1 44.496000 15.125410 15.000000
951 2 44.496000 15.904000 17.104598
952 2 42.848000 17.397410 17.104598
953 1 42.848000 18.176000 15.000000
954 1 44.496000 19.669410 15.000000
955 2 44.496000 20.448000 17.104598
956 2 42.848000 21.941410 17.104598
957 1 42.848000 22.720000 15.000000
958 1 44.496000 24.213410 15.000000
959 2 44.496000 24.992000 17.104598
960 2 42.848000 26.485410 17.104598
961 1 42.848000 27.264000 15.000000
962 1 44.496000 28.757410 15.000000
963 2 44.496000 29.536000 17.104598
964 2 42.848000 31.029410 17.104598
965 1 42.848000 31.808000 15.000000
966 1 44.496000 33.301410 15.000000
967 2 44.496000 34.080000 17.104598
968 2 42.848000 35.573410 17.104598
969 1 42.848000 36.352000 15.000000
970 1 44.496000 37.845410 15.000000
971 2 44.496000 38.624000 17.104598
972 2 42.848000 40.117410 17.104598
973 1 42.848000 40.896000 15.000000
974 1 44.496000 42.389410 15.000000
975 2 44.496000 43.168000 17.104598
976 2 42.848000 44.661410 17.104598
977 1 42.848000 45.440000 15.000000
978 1 44.496000 46.933410 15.000000
979 2 44.496000 47.712000 17.104598
980 2 42.848000 49.205410 17.104598
981 1 42.848000 49.984000 15.000000
982 1 44.496000 51.477410 15.000000
983 2 44.496000 52.256000 17.104598
984 2 42.848000 53.749410 17.104598
985 1 42.848000 54.528000 15.000000
986 1 44.496000 56.021410 15.000000
987 2 44.496000 56.800000 17.104598
988 2 42.848000 58.293410 17.104598
989 1 42.848000 59.072000 15.000000
990 1 44.496000 60.565410 15.000000
991 2 44.496000 61.344000 17.104598
992 2 42.848000 62.837410 17.104598
993 1 42.848000 63.616000 15.000000
994 1 44.496000 65.109410 15.000000
995 2 44.496000 65.888000 17.104598
996 2 42.848000 67.381410 17.104598
997 1 42.848000 68.160000 15.000000
998 1 44.496000 69.653410 15.000000
999 2 44.496000 70.432000 17.104598
1000 2 42.848000 71.925410 17.104598
1001 1 42.848000 72.704000 15.000000
1002 1 44.496000 74.197410 15.000000
1003 2 44.496000 74.976000 17.104598
1004 2 42.848000 76.469410 17.104598
1005 1 42.848000 77.248000 15.000000
1006 1 44.496000 78.741410 15.000000
1007 2 44.496000 79.520000 17.104598
1008 2 42.848000 81.013410 17.104598
1009 1 46.144000 0.000000 15.000000
1010 1 47.792000 1.493410 15.000000
1011 2 47.792000 2.272000 17.104598
1012 2 46.144000 3.765410 17.104598
1013 1 46.144000 4.544000 15.000000
1014 1 47.792000 6.037410 15.000000
1015 2 47.792000 6.816000 17.104598
1016 2 46.144000 8.309410 17.104598
1017 1 46.144000 9.088000 15.000000
1018 1 47.792000 10.581410 15.000000
1019 2 47.792000 11.360000 17.104598
1020 2 46.144000 12.853410 17.104598
1021 1 46.144000 13.632000 15.000000
1022 1 47.792000 15.125410 15.000000
1023 2 47.792000 15.904000 17.104598
1024 2 46.144000 17.397410 17.104598
1025 1 46.144000 18.176000 15.000000
1026 1 47.792000 19.669410 15.000000
1027 2 47.792000 20.448000 17.104598
1028 2 46.144000 21.941410 17.104598
1029 1 46.144000 22.720000 15.000000
1030 1 47.792000 24.213410 15.000000
1031 2 47.792000 24.992000 17.104598
1032 2 46.144000 26.485410 17.104598
1033 1 46.144000 27.264000 15.000000
1034 1 47.792000 28.757410 15.000000
1035 2 47.792000 29.536000 17.104598
1036 2 46.144000 31.029410 17.104598
1037 1 46.144000 31.808000 15.000000
1038 1 47.792000 33.301410 15.000000
1039 2 47.792000 34.080000 17.104598
1040 2 46.144000 35.573410 17.104598
1041 1 46.144000 36.352000 15.000000
1042 1 47.792000 37.845410 15.000000
1043 2 47.792000 38.624000 17.104598
1044 2 46.144000 40.117410 17.104598
1045 1 46.144000 40.896000 15.000000
1046 1 47.792000 42.389410 15.000000
1047 2 47.792000 43.168000 17.104598
1048 2 46.144000 44.661410 17.104598
1049 1 46.144000 45.440000 15.000000
1050 1 47.792000 46.933410 15.000000
1051 2 47.792000 47.712000 17.104598
1052 2 46.144000 49.205410 17.104598
1053 1 46.144000 49.984000 15.000000
1054 1 47.792000 51.477410 15.000000
1055 2 47.792000 52.256000 17.104598
1056 2 46.144000 53.749410 17.104598
1057 1 46.144000 54.528000 15.000000
1058 1 47.792000 56.021410 15.000000
1059 2 47.792000 56.800000 17.104598
1060 2 46.144000 58.293410 17.104598
1061 1 46.144000 59.072000 15.000000
1062 1 47.792000 60.565410 15.000000
1063 2 47.792000 61.344000 17.104598
1064 2 46.144000 62.837410 17.104598
1065 1 46.144000 63.616000 15.000000
1066 1 47.792000 65.109410 15.000000
1067 2 47.792000 65.888000 17.104598
1068 2 46.144000 67.381410 17.104598
1069 1 46.144000 68.160000 15.000000
1070 1 47.792000 69.653410 15.000000
1071 2 47.792000 70.432000 17.104598
1072 2 46.144000 71.925410 17.104598
1073 1 46.144000 72.704000 15.000000
1074 1 47.792000 74.197410 15.000000
1075 2 47.792000 74.976000 17.104598
1076 2 46.144000 76.469410 17.104598
1077 1 46.144000 77.248000 15.000000
1078 1 47.792000 78.741410 15.000000
1079 2 47.792000 79.520000 17.104598
1080 2 46.144000 81.013410 17.104598
1081 1 49.440000 0.000000 15.000000
1082 1 51.088000 1.493410 15.000000
1083 2 51.088000 2.272000 17.104598
1084 2 49.440000 3.765410 17.104598
1085 1 49.440000 4.544000 15.000000
1086 1 51.088000 6.037410 15.000000
1087 2 51.088000 6.816000 17.104598
1088 2 49.440000 8.309410 17.104598
1089 1 49.440000 9.088000 15.000000
1090 1 51.088000 10.581410 15.000000
1091 2 51.088000 11.360000 17.104598
1092 2 49.440000 12.853410 17.104598
1093 1 49.440000 13.632000 15.000000
1094 1 51.088000 15.125410 15.000000
1095 2 51.088000 15.904000 17.104598
1096 2 49.440000 17.397410 17.104598
1097 1 49.440000 18.176000 15.000000
1098 1 51.088000 19.669410 15.000000
1099 2 51.088000 20.448000 17.104598
1100 2 49.440000 21.941410 17.104598
1101 1 49.440000 22.720000 15.000000
1102 1 51.088000 24.213410 15.000000
1103 2 51.088000 24.992000 17.104598
1104 2 49.440000 26.485410 17.104598
1105 1 49.440000 27.264000 15.000000
1106 1 51.088000 28.757410 15.000000
1107 2 51.088000 29.536000 17.104598
1108 2 49.440000 31.029410 17.104598
1109 1 49.440000 31.808000 15.000000
1110 1 51.088000 33.301410 15.000000
1111 2 51.088000 34.080000 17.104598
1112 2 49.440000 35.573410 17.104598
1113 1 49.440000 36.352000 15.000000
1114 1 51.088000 37.845410 15.000000
1115 2 51.088000 38.624000 17.104598
1116 2 49.440000 40.117410 17.104598
1117 1 49.440000 40.896000 15.000000
1118 1 51.088000 42.389410 15.000000
1119 2 51.088000 43.168000 17.104598
1120 2 49.440000 44.661410 17.104598
1121 1 49.440000 45.440000 15.000000
1122 1 51.088000 46.933410 15.000000
1123 2 51.088000 47.712000 17.104598
1124 2 49.440000 49.205410 17.104598
1125 1 49.440000 49.984000 15.000000
1126 1 51.088000 51.477410 15.000000
1127 2 51.088000 52.256000 17.104598
1128 2 49.440000 53.749410 17.104598
1129 1 49.440000 54.528000 15.000000
1130 1 51.088000 56.021410 15.000000
1131 2 51.088000 56.800000 17.104598
1132 2 49.440000 58.293410 17.104598
1133 1 49.440000 59.072000 15.000000
1134 1 51.088000 60.565410 15.000000
1135 2 51.088000 61.344000 17.104598
1136 2 49.440000 62.837410 17.104598
1137 1 49.440000 63.616000 15.000000
1138 1 51.088000 65.109410 15.000000
1139 2 51.088000 65.888000 17.104598
1140 2 49.440000 67.381410 17.104598
1141 1 49.440000 68.160000 15.000000
1142 1 51.088000 69.653410 15.000000
1143 2 51.088000 70.432000 17.104598
1144 2 49.440000 71.925410 17.104598
1145 1 49.440000 72.704000 15.000000
1146 1 51.088000 74.197410 15.000000
1147 2 51.088000 74.976000 17.104598
1148 2 49.440000 76.469410 17.104598
1149 1 49.440000 77.248000 15.000000
1150 1 51.088000 78.741410 15.000000
1151 2 51.088000 79.520000 17.104598
1152 2 49.440000 81.013410 17.104598
1153 1 52.736000 0.000000 15.000000
1154 1 54.384000 1.493410 15.000000
1155 2 54.384000 2.272000 17.104598
1156 2 52.736000 3.765410 17.104598
1157 1 52.736000 4.544000 15.000000
1158 1 54.384000 6.037410 15.000000
1159 2 54.384000 6.816000 17.104598
1160 2 52.736000 8.309410 17.104598
1161 1 52.736000 9.088000 15.000000
1162 1 54.384000 10.581410 15.000000
1163 2 54.384000 11.360000 17.104598
1164 2 52.736000 12.853410 17.104598
1165 1 52.736000 13.632000 15.000000
1166 1 54.384000 15.125410 15.000000
1167 2 54.384000 15.904000 17.104598
1168 2 52.736000 17.397410 17.104598
1169 1 52.736000 18.176000 15.000000
1170 1 54.384000 19.669410 15.000000
1171 2 54.384000 20.448000 17.104598
1172 2 52.736000 21.941410 17.104598
1173 1 52.736000 22.720000 15.000000
1174 1 54.384000 24.213410 15.000000
1175 2 54.384000 24.992000 17.104598
1176 2 52.736000 26.485410 17.104598
1177 1 52.736000 27.264000 15.000000
1178 1 54.384000 28.757410 15.000000
1179 2 54.384000 29.536000 17.104598
1180 2 52.736000 31.029410 17.104598
1181 1 52.736000 31.808000 15.000000
1182 1 54.384000 33.301410 15.000000
1183 2 54.384000 34.080000 17.104598
1184 2 52.736000 35.573410 17.104598
1185 1 52.736000 36.352000 15.000000
1186 1 54.384000 37.845410 15.000000
1187 2 54.384000 38.624000 17.104598
1188 2 52.736000 40.117410 17.104598
1189 1 52.736000 40.896000 15.000000
1190 1 54.384000 42.389410 15.000000
1191 2 54.384000 43.168000 17.104598
1192 2 52.736000 44.661410 17.104598
1193 1 52.736000 45.440000 15.000000
1194 1 54.384000 46.933410 15.000000
1195 2 54.384000 47.712000 17.104598
1196 2 52.736000 49.205410 17.104598
1197 1 52.736000 49.984000 15.000000
1198 1 54.384000 51.477410 15.000000
1199 2 54.384000 52.256000 17.104598
1200 2 52.736000 53.749410 17.104598
1201 1 52.736000 54.528000 15.000000
1202 1 54.384000 56.021410 15.000000
1203 2 54.384000 56.800000 17.104598
1204 2 52.736000 58.293410 17.104598
1205 1 52.736000 59.072000 15.000000
1206 1 54.384000 60.565410 15.000000
1207 2 54.384000 61.344000 17.104598
1208 2 52.736000 62.837410 17.104598
1209 1 52.736000 63.616000 15.000000
1210 1 54.384000 65.109410 15.000000
1211 2 54.384000 65.888000 17.104598
1212 2 52.736000 67.381410 17.104598
1213 1 52.736000 68.160000 15.000000
1214 1 54.384000 69.653410 15.000000
1215 2 54.384000 70.432000 17.104598
1216 2 52.736000 71.925410 17.104598
1217 1 52.736000 72.704000 15.000000
1218 1 54.384000 74.197410 15.000000
1219 2 54.384000 74.976000 17.104598
1220 2 52.736000 76.469410 17.104598
1221 1 52.736000 77.248000 15.000000
1222 1 54.384000 78.741410 15.000000
1223 2 54.384000 79.520000 17.104598
1224 2 52.736000 81.013410 17.104598
1225 1 56.032000 0.000000 15.000000
1226 1 57.680000 1.493410 15.000000
1227 2 57.680000 2.272000 17.104598
1228 2 56.032000 3.765410 17.104598
1229 1 56.032000 4.544000 15.000000
1230 1 57.680000 6.037410 15.000000
1231 2 57.680000 6.816000 17.104598
1232 2 56.032000 8.309410 17.104598
1233 1 56.032000 9.088000 15.000000
1234 1 57.680000 10.581410 15.000000
1235 2 57.680000 11.360000 17.104598
1236 2 56.032000 12.853410 17.104598
1237 1 56.032000 13.632000 15.000000
1238 1 57.680000 15.125410 15.000000
1239 2 57.680000 15.904000 17.104598
1240 2 56.032000 17.397410 17.104598
1241 1 56.032000 18.176000 15.000000
1242 1 57.680000 19.669410 15.000000
1243 2 57.680000 20.448000 17.104598
1244 2 56.032000 21.941410 17.104598
1245 1 56.032000 22.720000 15.000000
1246 1 57.680000 24.213410 15.000000
1247 2 57.680000 24.992000 17.104598
1248 2 56.032000 26.485410 17.104598
1249 1 56.032000 27.264000 15.000000
1250 1 57.680000 28.757410 15.000000
1251 2 57.680000 29.536000 17.104598
1252 2 56.032000 31.029410 17.104598
1253 1 56.032000 31.808000 15.000000
1254 1 57.680000 33.301410 15.000000
1255 2 57.680000 34.080000 17.104598
1256 2 56.032000 35.573410 17.104598
1257 1 56.032000 36.352000 15.000000
1258 1 57.680000 37.845410 15.000000
1259 2 57.680000 38.624000 17.104598
1260 2 56.032000 40.117410 17.104598
1261 1 56.032000 40.896000 15.000000
1262 1 57.680000 42.389410 15.000000
1263 2 57.680000 43.168000 17.104598
1264 2 56.032000 44.661410 17.104598
1265 1 56.032000 45.440000 15.000000
1266 1 57.680000 46.933410 15.000000
1267 2 57.680000 47.712000 17.104598
1268 2 56.032000 49.205410 17.104598
1269 1 56.032000 49.984000 15.000000
1270 1 57.680000 51.477410 15.000000
1271 2 57.680000 52.256000 17.104598
1272 2 56.032000 53.749410 17.104598
1273 1 56.032000 54.528000 15.000000
1274 1 57.680000 56.021410 15.000000
1275 2 57.680000 56.800000 17.104598
1276 2 56.032000 58.293410 17.104598
1277 1 56.032000 59.072000 15.000000
1278 1 57.680000 60.565410 15.000000
1279 2 57.680000 61.344000 17.104598
1280 2 56.032000 62.837410 17.104598
1281 1 56.032000 63.616000 15.000000
1282 1 57.680000 65.109410 15.000000
1283 2 57.680000 65.888000 17.104598
1284 2 56.032000 67.381410 17.104598
1285 1 56.032000 68.160000 15.000000
1286 1 57.680000 69.653410 15.000000
1287 2 57.680000 70.432000 17.104598
1288 2 56.032000 71.925410 17.104598
1289 1 56.032000 72.704000 15.000000
1290 1 57.680000 74.197410 15.000000
1291 2 57.680000 74.976000 17.104598
1292 2 56.032000 76.469410 17.104598
1293 1 56.032000 77.248000 15.000000
1294 1 57.680000 78.741410 15.000000
1295 2 57.680000 79.520000 17.104598
1296 2 56.032000 81.013410 17.104598
1297 1 59.328000 0.000000 15.000000
1298 1 60.976000 1.493410 15.000000
1299 2 60.976000 2.272000 17.104598
1300 2 59.328000 3.765410 17.104598
1301 1 59.328000 4.544000 15.000000
1302 1 60.976000 6.037410 15.000000
1303 2 60.976000 6.816000 17.104598
1304 2 59.328000 8.309410 17.104598
1305 1 59.328000 9.088000 15.000000
1306 1 60.976000 10.581410 15.000000
1307 2 60.976000 11.360000 17.104598
1308 2 59.328000 12.853410 17.104598
1309 1 59.328000 13.632000 15.000000
1310 1 60.976000 15.125410 15.000000
1311 2 60.976000 15.904000 17.104598
1312 2 59.328000 17.397410 17.104598
1313 1 59.328000 18.176000 15.000000
1314 1 60.976000 19.669410 15.000000
1315 2 60.976000 20.448000 17.104598
1316 2 59.328000 21.941410 17.104598
1317 1 59.328000 22.720000 15.000000
1318 1 60.976000 24.213410 15.000000
1319 2 60.976000 24.992000 17.104598
1320 2 59.328000 26.485410 17.104598
1321 1 59.328000 27.264000 15.000000
1322 1 60.976000 28.757410 15.000000
1323 2 60.976000 29.536000 17.104598
1324 2 59.328000 31.029410 17.104598
1325 1 59.328000 31.808000 15.000000
1326 1 60.976000 33.301410 15.000000
1327 2 60.976000 34.080000 17.104598
1328 2 59.328000 35.573410 17.104598
1329 1 59.328000 36.352000 15.000000
1330 1 60.976000 37.845410 15.000000
1331 2 60.976000 38.624000 17.104598
1332 2 59.328000 40.117410 17.104598
1333 1 59.328000 40.896000 15.000000
1334 1 60.976000 42.389410 15.000000
1335 2 60.976000 43.168000 17.104598
1336 2 59.328000 44.661410 17.104598
1337 1 59.328000 45.440000 15.000000
1338 1 60.976000 46.933410 15.000000
1339 2 60.976000 47.712000 17.104598
1340 2 59.328000 49.205410 17.104598
1341 1 59.328000 49.984000 15.000000
1342 1 60.976000 51.477410 15.000000
1343 2 60.976000 52.256000 17.104598
1344 2 59.328000 53.749410 17.104598
1345 1 59.328000 54.528000 15.000000
1346 1 60.976000 56.021410 15.000000
1347 2 60.976000 56.800000 17.104598
1348 2 59.328000 58.293410 17.104598
1349 1 59.328000 59.072000 15.000000
1350 1 60.976000 60.565410 15.000000
1351 2 60.976000 61.344000 17.104598
1352 2 59.328000 62.837410 17.104598
1353 1 59.328000 63.616000 15.000000
1354 1 60.976000 65.109410 15.000000
1355 2 60.976000 65.888000 17.104598
1356 2 59.328000 67.381410 17.104598
1357 1 59.328000 68.160000 15.000000
1358 1 60.976000 69.653410 15.000000
1359 2 60.976000 70.432000 17.104598
1360 2 59.328000 71.925410 17.104598
1361 1 59.328000 72.704000 15.000000
1362 1 60.976000 74.197410 15.000000
1363 2 60.976000 74.976000 17.104598
1364 2 59.328000 76.469410 17.104598
1365 1 59.328000 77.248000 15.000000
1366 1 60.976000 78.741410 15.000000
1367 2 60.976000 79.520000 17.104598
1368 2 59.328000 81.013410 17.104598
1369 1 62.624000 0.000000 15.000000
1370 1 64.272000 1.493410 15.000000
1371 2 64.272000 2.272000 17.104598
1372 2 62.624000 3.765410 17.104598
1373 1 62.624000 4.544000 15.000000
1374 1 64.272000 6.037410 15.000000
1375 2 64.272000 6.816000 17.104598
1376 2 62.624000 8.309410 17.104598
1377 1 62.624000 9.088000 15.000000
1378 1 64.272000 10.581410 15.000000
1379 2 64.272000 11.360000 17.104598
1380 2 62.624000 12.853410 17.104598
1381 1 62.624000 13.632000 15.000000
1382 1 64.272000 15.125410 15.000000
1383 2 64.272000 15.904000 17.104598
1384 2 62.624000 17.397410 17.104598
1385 1 62.624000 18.176000 15.000000
1386 1 64.272000 19.669410 15.000000
1387 2 64.272000 20.448000 17.104598
1388 2 62.624000 21.941410 17.104598
1389 1 62.624000 22.720000 15.000000
1390 1 64.272000 24.213410 15.000000
1391 2 64.272000 24.992000 17.104598
1392 2 62.624000 26.485410 17.104598
1393 1 62.624000 27.264000 15.000000
1394 1 64.272000 28.757410 15.000000
1395 2 64.272000 29.536000 17.104598
1396 2 62.624000 31.029410 17.104598
1397 1 62.624000 31.808000 15.000000
1398 1 64.272000 33.301410 15.000000
1399 2 64.272000 34.080000 17.104598
1400 2 62.624000 35.573410 17.104598
1401 1 62.624000 36.352000 15.000000
1402 1 64.272000 37.845410 15.000000
1403 2 64.272000 38.624000 17.104598
1404 2 62.624000 40.117410 17.104598
1405 1 62.624000 40.896000 15.000000
1406 1 64.272000 42.389410 15.000000
1407 2 64.272000 43.168000 17.104598
1408 2 62.624000 44.661410 17.104598
1409 1 62.624000 45.440000 15.000000
1410 1 64.272000 46.933410 15.000000
1411 2 64.272000 47.712000 17.104598
1412 2 62.624000 49.205410 17.104598
1413 1 62.624000 49.984000 15.000000
1414 1 64.272000 51.477410 15.000000
1415 2 64.272000 52.256000 17.104598
1416 2 62.624000 53.749410 17.104598
1417 1 62.624000 54.528000 15.000000
1418 1 64.272000 56.021410 15.000000
1419 2 64.272000 56.800000 17.104598
1420 2 62.624000 58.293410 17.104598
1421 1 62.624000 59.072000 15.000000
1422 1 64.272000 60.565410 15.000000
1423 2 64.272000 61.344000 17.104598
1424 2 62.624000 62.837410 17.104598
1425 1 62.624000 63.616000 15.000000
1426 1 64.272000 65.109410 15.000000
1427 2 64.272000 65.888000 17.104598
1428 2 62.624000 67.381410 17.104598
1429 1 62.624000 68.160000 15.000000
1430 1 64.272000 69.653410 15.000000
1431 2 64.272000 70.432000 17.104598
1432 2 62.624000 71.925410 17.104598
1433 1 62.624000 72.704000 15.000000
1434 1 64.272000 74.197410 15.000000
1435 2 64.272000 74.976000 17.104598
1436 2 62.624000 76.469410 17.104598
1437 1 62.624000 77.248000 15.000000
1438 1 64.272000 78.741410 15.000000
1439 2 64.272000 79.520000 17.104598
1440 2 62.624000 81.013410 17.104598
1441 1 65.920000 0.000000 15.000000
1442 1 67.568000 1.493410 15.000000
1443 2 67.568000 2.272000 17.104598
1444 2 65.920000 3.765410 17.104598
1445 1 65.920000 4.544000 15.000000
1446 1 67.568000 6.037410 15.000000
1447 2 67.568000 6.816000 17.104598
1448 2 65.920000 8.309410 17.104598
1449 1 65.920000 9.088000 15.000000
1450 1 67.568000 10.581410 15.000000
1451 2 67.568000 11.360000 17.104598
1452 2 65.920000 12.853410 17.104598
1453 1 65.920000 13.632000 15.000000
1454 1 67.568000 15.125410 15.000000
1455 2 67.568000 15.904000 17.104598
1456 2 65.920000 17.397410 17.104598
1457 1 65.920000 18.176000 15.000000
1458 1 67.568000 19.669410 15.000000
1459 2 67.568000 20.448000 17.104598
1460 2 65.920000 21.941410 17.104598
1461 1 65.920000 22.720000 15.000000
1462 1 67.568000 24.213410 15.000000
1463 2 67.568000 24.992000 17.104598
1464 2 65.920000 26.485410 17.104598
1465 1 65.920000 27.264000 15.000000
1466 1 67.568000 28.757410 15.000000
1467 2 67.568000 29.536000 17.104598
1468 2 65.920000 31.029410 17.104598
1469 1 65.920000 31.808000 15.000000
1470 1 67.568000 33.301410 15.000000
1471 2 67.568000 34.080000 17.104598
1472 2 65.920000 35.573410 17.104598
1473 1 65.920000 36.352000 15.000000
1474 1 67.568000 37.845410 15.000000
1475 2 67.568000 38.624000 17.104598
1476 2 65.920000 40.117410 17.104598
1477 1 65.920000 40.896000 15.000000
1478 1 67.568000 42.389410 15.000000
1479 2 67.568000 43.168000 17.104598
1480 2 65.920000 44.661410 17.104598
1481 1 65.920000 45.440000 15.000000
1482 1 67.568000 46.933410 15.000000
1483 2 67.568000 47.712000 17.104598
1484 2 65.920000 49.205410 17.104598
1485 1 65.920000 49.984000 15.000000
1486 1 67.568000 51.477410 15.000000
1487 2 67.568000 52.256000 17.104598
1488 2 65.920000 53.749410 17.104598
1489 1 65.920000 54.528000 15.000000
1490 1 67.568000 56.021410 15.000000
1491 2 67.568000 56.800000 17.104598
1492 2 65.920000 58.293410 17.104598
1493 1 65.920000 59.072000 15.000000
1494 1 67.568000 60.565410 15.000000
1495 2 67.568000 61.344000 17.104598
1496 2 65.920000 62.837410 17.104598
1497 1 65.920000 63.616000 15.000000
1498 1 67.568000 65.109410 15.000000
1499 2 67.568000 65.888000 17.104598
1500 2 65.920000 67.381410 17.104598
1501 1 65.920000 68.160000 15.000000
1502 1 67.568000 69.653410 15.000000
1503 2 67.568000 70.432000 17.104598
1504 2 65.920000 71.925410 17.104598
1505 1 65.920000 72.704000 15.000000
1506 1 67.568000 74.197410 15.000000
1507 2 67.568000 74.976000 17.104598
1508 2 65.920000 76.469410 17.104598
1509 1 65.920000 77.248000 15.000000
1510 1 67.568000 78.741410 15.000000
1511 2 67.568000 79.520000 17.104598
1512 2 65.920000 81.013410 17.104598
1513 1 69.216000 0.000000 15.000000
1514 1 70.864000 1.493410 15.000000
1515 2 70.864000 2.272000 17.104598
1516 2 69.216000 3.765410 17.104598
1517 1 69.216000 4.544000 15.000000
1518 1 70.864000 6.037410 15.000000
1519 2 70.864000 6.816000 17.104598
1520 2 69.216000 8.309410 17.104598
1521 1 69.216000 9.088000 15.000000
1522 1 70.864000 10.581410 15.000000
1523 2 70.864000 11.360000 17.104598
1524 2 69.216000 12.853410 17.104598
1525 1 69.216000 13.632000 15.000000
1526 1 70.864000 15.125410 15.000000
1527 2 70.864000 15.904000 17.104598
1528 2 69.216000 17.397410 17.104598
1529 1 69.216000 18.176000 15.000000
1530 1 70.864000 19.669410 15.000000
1531 2 70.864000 20.448000 17.104598
1532 2 69.216000 21.941410 17.104598
1533 1 69.216000 22.720000 15.000000
1534 1 70.864000 24.213410 15.000000
1535 2 70.864000 24.992000 17.104598
1536 2 69.216000 26.485410 17.104598
1537 1 69.216000 27.264000 15.000000
1538 1 70.864000 28.757410 15.000000
1539 2 70.864000 29.536000 17.104598
1540 2 69.216000 31.029410 17.104598
1541 1 69.216000 31.808000 15.000000
1542 1 70.864000 33.301410 15.000000
1543 2 70.864000 34.080000 17.104598
1544 2 69.216000 35.573410 17.104598
1545 1 69.216000 36.352000 15.000000
1546 1 70.864000 37.845410 15.000000
1547 2 70.864000 38.624000 17.104598
1548 2 69.216000 40.117410 17.104598
1549 1 69.216000 40.896000 15.000000
1550 1 70.864000 42.389410 15.000000
1551 2 70.864000 43.168000 17.104598
1552 2 69.216000 44.661410 17.104598
1553 1 69.216000 45.440000 15.000000
1554 1 70.864000 46.933410 15.000000
1555 2 70.864000 47.712000 17.104598
1556 2 69.216000 49.205410 17.104598
1557 1 69.216000 49.984000 15.000000
1558 1 70.864000 51.477410 15.000000
1559 2 70.864000 52.256000 17.104598
1560 2 69.216000 53.749410 17.104598
1561 1 69.216000 54.528000 15.000000
1562 1 70.864000 56.021410 15.000000
1563 2 70.864000 56.800000 17.104598
1564 2 69.216000 58.293410 17.104598
1565 1 69.216000 59.072000 15.000000
1566 1 70.864000 60.565410 15.000000
1567 2 70.864000 61.344000 17.104598
1568 2 69.216000 62.837410 17.104598
1569 1 69.216000 63.616000 15.000000
1570 1 70.864000 65.109410 15.000000
1571 2 70.864000 65.888000 17.104598
1572 2 69.216000 67.381410 17.104598
1573 1 69.216000 68.160000 15.000000
1574 1 70.864000 69.653410 15.000000
1575 2 70.864000 70.432000 17.104598
1576 2 69.216000 71.925410 17.104598
1577 1 69.216000 72.704000 15.000000
1578 1 70.864000 74.197410 15.000000
1579 2 70.864000 74.976000 17.104598
1580 2 69.216000 76.469410 17.104598
1581 1 69.216000 77.248000 15.000000
1582 1 70.864000 78.741410 15.000000
1583 2 70.864000 79.520000 17.104598
1584 2 69.216000 81.013410 17.104598
1585 1 72.512000 0.000000 15.000000
1586 1 74.160000 1.493410 15.000000
1587 2 74.160000 2.272000 17.104598
1588 2 72.512000 3.765410 17.104598
1589 1 72.512000 4.544000 15.000000
1590 1 74.160000 6.037410 15.000000
1591 2 74.160000 6.816000 17.104598
1592 2 72.512000 8.309410 17.104598
1593 1 72.512000 9.088000 15.000000
1594 1 74.160000 10.581410 15.000000
1595 2 74.160000 11.360000 17.104598
1596 2 72.512000 12.853410 17.104598
1597 1 72.512000 13.632000 15.000000
1598 1 74.160000 15.125410 15.000000
1599 2 74.160000 15.904000 17.104598
1600 2 72.512000 17.397410 17.104598
1601 1 72.512000 18.176000 15.000000
1602 1 74.160000 19.669410 15.000000
1603 2 74.160000 20.448000 17.104598
1604 2 72.512000 21.941410 17.104598
1605 1 72.512000 22.720000 15.000000
1606 1 74.160000 24.213410 15.000000
1607 2 74.160000 24.992000 17.104598
1608 2 72.512000 26.485410 17.104598
1609 1 72.512000 27.264000 15.000000
1610 1 74.160000 28.757410 15.000000
1611 2 74.160000 29.536000 17.104598
1612 2 72.512000 31.029410 17.104598
1613 1 72.512000 31.808000 15.000000
1614 1 74.160000 33.301410 15.000000
1615 2 74.160000 34.080000 17.104598
1616 2 72.512000 35.573410 17.104598
1617 1 72.512000 36.352000 15.000000
1618 1 74.160000 37.845410 15.000000
1619 2 74.160000 38.624000 17.104598
1620 2 72.512000 40.117410 17.104598
1621 1 72.512000 40.896000 15.000000
1622 1 74.160000 42.389410 15.000000
1623 2 74.160000 43.168000 17.104598
1624 2 72.512000 44.661410 17.104598
1625 1 72.512000 45.440000 15.000000
1626 1 74.160000 46.933410 15.000000
1627 2 74.160000 47.712000 17.104598
1628 2 72.512000 49.205410 17.104598
1629 1 72.512000 49.984000 15.000000
1630 1 74.160000 51.477410 15.000000
1631 2 74.160000 52.256000 17.104598
1632 2 72.512000 53.749410 17.104598
1633 1 72.512000 54.528000 15.000000
1634 1 74.160000 56.021410 15.000000
1635 2 74.160000 56.800000 17.104598
1636 2 72.512000 58.293410 17.104598
1637 1 72.512000 59.072000 15.000000
1638 1 74.160000 60.565410 15.000000
1639 2 74.160000 61.344000 17.104598
1640 2 72.512000 62.837410 17.104598
1641 1 72.512000 63.616000 15.000000
1642 1 74.160000 65.109410 15.000000
1643 2 74.160000 65.888000 17.104598
1644 2 72.512000 67.381410 17.104598
1645 1 72.512000 68.160000 15.000000
1646 1 74.160000 69.653410 15.000000
1647 2 74.160000 70.432000 17.104598
1648 2 72.512000 71.925410 17.104598
1649 1 72.512000 72.704000 15.000000
1650 1 74.160000 74.197410 15.000000
1651 2 74.160000 74.976000 17.104598
1652 2 72.512000 76.469410 17.104598
1653 1 72.512000 77.248000 15.000000
1654 1 74.160000 78.741410 15.000000
1655 2 74.160000 79.520000 17.104598
1656 2 72.512000 81.013410 17.104598
1657 1 75.808000 0.000000 15.000000
1658 1 77.456000 1.493410 15.000000
1659 2 77.456000 2.272000 17.104598
1660 2 75.808000 3.765410 17.104598
1661 1 75.808000 4.544000 15.000000
1662 1 77.456000 6.037410 15.000000
1663 2 77.456000 6.816000 17.104598
1664 2 75.808000 8.309410 17.104598
1665 1 75.808000 9.088000 15.000000
1666 1 77.456000 10.581410 15.000000
1667 2 77.456000 11.360000 17.104598
1668 2 75.808000 12.853410 17.104598
1669 1 75.808000 13.632000 15.000000
1670 1 77.456000 15.125410 15.000000
1671 2 77.456000 15.904000 17.104598
1672 2 75.808000 17.397410 17.104598
1673 1 75.808000 18.176000 15.000000
1674 1 77.456000 19.669410 15.000000
1675 2 77.456000 20.448000 17.104598
1676 2 75.808000 21.941410 17.104598
1677 1 75.808000 22.720000 15.000000
1678 1 77.456000 24.213410 15.000000
1679 2 77.456000 24.992000 17.104598
1680 2 75.808000 26.485410 17.104598
1681 1 75.808000 27.264000 15.000000
1682 1 77.456000 28.757410 15.000000
1683 2 77.456000 29.536000 17.104598
1684 2 75.808000 31.029410 17.104598
1685 1 75.808000 31.808000 15.000000
1686 1 77.456000 33.301410 15.000000
1687 2 77.456000 34.080000 17.104598
1688 2 75.808000 35.573410 17.104598
1689 1 75.808000 36.352000 15.000000
1690 1 77.456000 37.845410 15.000000
1691 2 77.456000 38.624000 17.104598
1692 2 75.808000 40.117410 17.104598
1693 1 75.808000 40.896000 15.000000
1694 1 77.456000 42.389410 15.000000
1695 2 77.456000 43.168000 17.104598
1696 2 75.808000 44.661410 17.104598
1697 1 75.808000 45.440000 15.000000
1698 1 77.456000 46.933410 15.000000
1699 2 77.456000 47.712000 17.104598
1700 2 75.808000 49.205410 17.104598
1701 1 75.808000 49.984000 15.000000
1702 1 77.456000 51.477410 15.000000
1703 2 77.456000 52.256000 17.104598
1704 2 75.808000 53.749410 17.104598
1705 1 75.808000 54.528000 15.000000
1706 1 77.456000 56.021410 15.000000
1707 2 77.456000 56.800000 17.104598
1708 2 75.808000 58.293410 17.104598
1709 1 75.808000 59.072000 15.000000
1710 1 77.456000 60.565410 15.000000
1711 2 77.456000 61.344000 17.104598
1712 2 75.808000 62.837410 17.104598
1713 1 75.808000 63.616000 15.000000
1714 1 77.456000 65.109410 15.000000
1715 2 77.456000 65.888000 17.104598
1716 2 75.808000 67.381410 17.104598
1717 1 75.808000 68.160000 15.000000
1718 1 77.456000 69.653410 15.000000
1719 2 77.456000 70.432000 17.104598
1720 2 75.808000 71.925410 17.104598
1721 1 75.808000 72.704000 15.000000
1722 1 77.456000 74.197410 15.000000
1723 2 77.456000 74.976000 17.104598
1724 2 75.808000 76.469410 17.104598
1725 1 75.808000 77.248000 15.000000
1726 1 77.456000 78.741410 15.000000
1727 2 77.456000 79.520000 17.104598
1728 2 75.808000 81.013410 17.104598
1729 1 79.104000 0.000000 15.000000
1730 1 80.752000 1.493410 15.000000
1731 2 80.752000 2.272000 17.104598
1732 2 79.104000 3.765410 17.104598
1733 1 79.104000 4.544000 15.000000
1734 1 80.752000 6.037410 15.000000
1735 2 80.752000 6.816000 17.104598
1736 2 79.104000 8.309410 17.104598
1737 1 79.104000 9.088000 15.000000
1738 1 80.752000 10.581410 15.000000
1739 2 80.752000 11.360000 17.104598
1740 2 79.104000 12.853410 17.104598
1741 1 79.104000 13.632000 15.000000
1742 1 80.752000 15.125410 15.000000
1743 2 80.752000 15.904000 17.104598
1744 2 79.104000 17.397410 17.104598
1745 1 79.104000 18.176000 15.000000
1746 1 80.752000 19.669410 15.000000
1747 2 80.752000 20.448000 17.104598
1748 2 79.104000 21.941410 17.104598
1749 1 79.104000 22.720000 15.000000
1750 1 80.752000 24.213410 15.000000
1751 2 80.752000 24.992000 17.104598
1752 2 79.104000 26.485410 17.104598
1753 1 79.104000 27.264000 15.000000
1754 1 80.752000 28.757410 15.000000
1755 2 80.752000 29.536000 17.104598
1756 2 79.104000 31.029410 17.104598
1757 1 79.104000 31.808000 15.000000
1758 1 80.752000 33.301410 15.000000
1759 2 80.752000 34.080000 17.104598
1760 2 79.104000 35.573410 17.104598
1761 1 79.104000 36.352000 15.000000
1762 1 80.752000 37.845410 15.000000
1763 2 80.752000 38.624000 17.104598
1764 2 79.104000 40.117410 17.104598
1765 1 79.104000 40.896000 15.000000
1766 1 80.752000 42.389410 15.000000
1767 2 80.752000 43.168000 17.104598
1768 2 79.104000 44.661410 17.104598
1769 1 79.104000 45.440000 15.000000
1770 1 80.752000 46.933410 15.000000
1771 2 80.752000 47.712000 17.104598
1772 2 79.104000 49.205410 17.104598
1773 1 79.104000 49.984000 15.000000
1774 1 80.752000 51.477410 15.000000
1775 2 80.752000 52.256000 17.104598
1776 2 79.104000 53.749410 17.104598
1777 1 79.104000 54.528000 15.000000
1778 1 80.752000 56.021410 15.000000
1779 2 80.752000 56.800000 17.104598
1780 2 79.104000 58.293410 17.104598
1781 1 79.104000 59.072000 15.000000
1782 1 80.752000 60.565410 15.000000
1783 2 80.752000 61.344000 17.104598
1784 2 79.104000 62.837410 17.104598
1785 1 79.104000 63.616000 15.000000
1786 1 80.752000 65.109410 15.000000
1787 2 80.752000 65.888000 17.104598
1788 2 79.104000 67.381410 17.104598
1789 1 79.104000 68.160000 15.000000
1790 1 80.752000 69.653410 15.000000
1791 2 80.752000 70.432000 17.104598
1792 2 79.104000 71.925410 17.104598
1793 1 79.104000 72.704000 15.000000
1794 1 80.752000 74.197410 15.000000
1795 2 80.752000 74.976000 17.104598
1796 2 79.104000 76.469410 17.104598
1797 1 79.104000 77.248000 15.000000
1798 1 80.752000 78.741410 15.000000
1799 2 80.752000 79.520000 17.104598
1800 2 79.104000 81.013410 17.104598
1801 1 82.400000 0.000000 15.000000
1802 1 84.048000 1.493410 15.000000
1803 2 84.048000 2.272000 17.104598
1804 2 82.400000 3.765410 17.104598
1805 1 82.400000 4.544000 15.000000
1806 1 84.048000 6.037410 15.000000
1807 2 84.048000 6.816000 17.104598
1808 2 82.400000 8.309410 17.104598
1809 1 82.400000 9.088000 15.000000
1810 1 84.048000 10.581410 15.000000
1811 2 84.048000 11.360000 17.104598
1812 2 82.400000 12.853410 17.104598
1813 1 82.400000 13.632000 15.000000
1814 1 84.048000 15.125410 15.000000
1815 2 84.048000 15.904000 17.104598
1816 2 82.400000 17.397410 17.104598
1817 1 82.400000 18.176000 15.000000
1818 1 84.048000 19.669410 15.000000
1819 2 84.048000 20.448000 17.104598
1820 2 82.400000 21.941410 17.104598
1821 1 82.400000 22.720000 15.000000
1822 1 84.048000 24.213410 15.000000
1823 2 84.048000 24.992000 17.104598
1824 2 82.400000 26.485410 17.104598
1825 1 82.400000 27.264000 15.000000
1826 1 84.048000 28.757410 15.000000
1827 2 84.048000 29.536000 17.104598
1828 2 82.400000 31.029410 17.104598
1829 1 82.400000 31.808000 15.000000
1830 1 84.048000 33.301410 15.000000
1831 2 84.048000 34.080000 17.104598
1832 2 82.400000 35.573410 17.104598
1833 1 82.400000 36.352000 15.000000
1834 1 84.048000 37.845410 15.000000
1835 2 84.048000 38.624000 17.104598
1836 2 82.400000 40.117410 17.104598
1837 1 82.400000 40.896000 15.000000
1838 1 84.048000 42.389410 15.000000
1839 2 84.048000 43.168000 17.104598
1840 2 82.400000 44.661410 17.104598
1841 1 82.400000 45.440000 15.000000
1842 1 84.048000 46.933410 15.000000
1843 2 84.048000 47.712000 17.104598
1844 2 82.400000 49.205410 17.104598
1845 1 82.400000 49.984000 15.000000
1846 1 84.048000 51.477410 15.000000
1847 2 84.048000 52.256000 17.104598
1848 2 82.400000 53.749410 17.104598
1849 1 82.400000 54.528000 15.000000
1850 1 84.048000 56.021410 15.000000
1851 2 84.048000 56.800000 17.104598
1852 2 82.400000 58.293410 17.104598
1853 1 82.400000 59.072000 15.000000
1854 1 84.048000 60.565410 15.000000
1855 2 84.048000 61.344000 17.104598
1856 2 82.400000 62.837410 17.104598
1857 1 82.400000 63.616000 15.000000
1858 1 84.048000 65.109410 15.000000
1859 2 84.048000 65.888000 17.104598
1860 2 82.400000 67.381410 17.104598
1861 1 82.400000 68.160000 15.000000
1862 1 84.048000 69.653410 15.000000
1863 2 84.048000 70.432000 17.104598
1864 2 82.400000 71.925410 17.104598
1865 1 82.400000 72.704000 15.000000
1866 1 84.048000 74.197410 15.000000
1867 2 84.048000 74.976000 17.104598
1868 2 82.400000 76.469410 17.104598
1869 1 82.400000 77.248000 15.000000
1870 1 84.048000 78.741410 15.000000
1871 2 84.048000 79.520000 17.104598
1872 2 82.400000 81.013410 17.104598
1873 1 85.696000 0.000000 15.000000
1874 1 87.344000 1.493410 15.000000
1875 2 87.344000 2.272000 17.104598
1876 2 85.696000 3.765410 17.104598
1877 1 85.696000 4.544000 15.000000
1878 1 87.344000 6.037410 15.000000
1879 2 87.344000 6.816000 17.104598
1880 2 85.696000 8.309410 17.104598
1881 1 85.696000 9.088000 15.000000
1882 1 87.344000 10.581410 15.000000
1883 2 87.344000 11.360000 17.104598
1884 2 85.696000 12.853410 17.104598
1885 1 85.696000 13.632000 15.000000
1886 1 87.344000 15.125410 15.000000
1887 2 87.344000 15.904000 17.104598
1888 2 85.696000 17.397410 17.104598
1889 1 85.696000 18.176000 15.000000
1890 1 87.344000 19.669410 15.000000
1891 2 87.344000 20.448000 17.104598
1892 2 85.696000 21.941410 17.104598
1893 1 85.696000 22.720000 15.000000
1894 1 87.344000 24.213410 15.000000
1895 2 87.344000 24.992000 17.104598
1896 2 85.696000 26.485410 17.104598
1897 1 85.696000 27.264000 15.000000
1898 1 87.344000 28.757410 15.000000
1899 2 87.344000 29.536000 17.104598
1900 2 85.696000 31.029410 17.104598
1901 1 85.696000 31.808000 15.000000
1902 1 87.344000 33.301410 15.000000
1903 2 87.344000 34.080000 17.104598
1904 2 85.696000 35.573410 17.104598
1905 1 85.696000 36.352000 15.000000
1906 1 87.344000 37.845410 15.000000
1907 2 87.344000 38.624000 17.104598
1908 2 85.696000 40.117410 17.104598
1909 1 85.696000 40.896000 15.000000
1910 1 87.344000 42.389410 15.000000
1911 2 87.344000 43.168000 17.104598
1912 2 85.696000 44.661410 17.104598
1913 1 85.696000 45.440000 15.000000
1914 1 87.344000 46.933410 15.000000
1915 2 87.344000 47.712000 17.104598
1916 2 85.696000 49.205410 17.104598
1917 1 85.696000 49.984000 15.000000
1918 1 87.344000 51.477410 15.000000
1919 2 87.344000 52.256000 17.104598
1920 2 85.696000 53.749410 17.104598
1921 1 85.696000 54.528000 15.000000
1922 1 87.344000 56.021410 15.000000
1923 2 87.344000 56.800000 17.104598
1924 2 85.696000 58.293410 17.104598
1925 1 85.696000 59.072000 15.000000
1926 1 87.344000 60.565410 15.000000
1927 2 87.344000 61.344000 17.104598
1928 2 85.696000 62.837410 17.104598
1929 1 85.696000 63.616000 15.000000
1930 1 87.344000 65.109410 15.000000
1931 2 87.344000 65.888000 17.104598
1932 2 85.696000 67.381410 17.104598
1933 1 85.696000 68.160000 15.000000
1934 1 87.344000 69.653410 15.000000
1935 2 87.344000 70.432000 17.104598
1936 2 85.696000 71.925410 17.104598
1937 1 85.696000 72.704000 15.000000
1938 1 87.344000 74.197410 15.000000
1939 2 87.344000 74.976000 17.104598
1940 2 85.696000 76.469410 17.104598
1941 1 85.696000 77.248000 15.000000
1942 1 87.344000 78.741410 15.000000
1943 2 87.344000 79.520000 17.104598
1944 2 85.696000 81.013410 17.104598
1945 1 88.992000 0.000000 15.000000
1946 1 90.640000 1.493410 15.000000
1947 2 90.640000 2.272000 17.104598
1948 2 88.992000 3.765410 17.104598
1949 1 88.992000 4.544000 15.000000
1950 1 90.640000 6.037410 15.000000
1951 2 90.640000 6.816000 17.104598
1952 2 88.992000 8.309410 17.104598
1953 1 88.992000 9.088000 15.000000
1954 1 90.640000 10.581410 15.000000
1955 2 90.640000 11.360000 17.104598
1956 2 88.992000 12.853410 17.104598
1957 1 88.992000 13.632000 15.000000
1958 1 90.640000 15.125410 15.000000
1959 2 90.640000 15.904000 17.104598
1960 2 88.992000 17.397410 17.104598
1961 1 88.992000 18.176000 15.000000
1962 1 90.640000 19.669410 15.000000
1963 2 90.640000 20.448000 17.104598
1964 2 88.992000 21.941410 17.104598
1965 1 88.992000 22.720000 15.000000
1966 1 90.640000 24.213410 15.000000
1967 2 90.640000 24.992000 17.104598
1968 2 88.992000 26.485410 17.104598
1969 1 88.992000 27.264000 15.000000
1970 1 90.640000 28.757410 15.000000
1971 2 90.640000 29.536000 17.104598
1972 2 88.992000 31.029410 17.104598
1973 1 88.992000 31.808000 15.000000
1974 1 90.640000 33.301410 15.000000
1975 2 90.640000 34.080000 17.104598
1976 2 88.992000 35.573410 17.104598
1977 1 88.992000 36.352000 15.000000
1978 1 90.640000 37.845410 15.000000
1979 2 90.640000 38.624000 17.104598
1980 2 88.992000 40.117410 17.104598
1981 1 88.992000 40.896000 15.000000
1982 1 90.640000 42.389410 15.000000
1983 2 90.640000 43.168000 17.104598
1984 2 88.992000 44.661410 17.104598
1985 1 88.992000 45.440000 15.000000
1986 1 90.640000 46.933410 15.000000
1987 2 90.640000 47.712000 17.104598
1988 2 88.992000 49.205410 17.104598
1989 1 88.992000 49.984000 15.000000
1990 1 90.640000 51.477410 15.000000
1991 2 90.640000 52.256000 17.104598
1992 2 88.992000 53.749410 17.104598
1993 1 88.992000 54.528000 15.000000
1994 1 90.640000 56.021410 15.000000
1995 2 90.640000 56.800000 17.104598
1996 2 88.992000 58.293410 17.104598
1997 1 88.992000 59.072000 15.000000
1998 1 90.640000 60.565410 15.000000
1999 2 90.640000 61.344000 17.104598
2000 2 88.992000 62.837410 17.104598
2001 1 88.992000 63.616000 15.000000
2002 1 90.640000 65.109410 15.000000
2003 2 90.640000 65.888000 17.104598
2004 2 88.992000 67.381410 17.104598
2005 1 88.992000 68.160000 15.000000
2006 1 90.640000 69.653410 15.000000
2007 2 90.640000 70.432000 17.104598
2008 2 88.992000 71.925410 17.104598
2009 1 88.992000 72.704000 15.000000
2010 1 90.640000 74.197410 15.000000
2011 2 90.640000 74.976000 17.104598
2012 2 88.992000 76.469410 17.104598
2013 1 88.992000 77.248000 15.000000
2014 1 90.640000 78.741410 15.000000
2015 2 90.640000 79.520000 17.104598
2016 2 88.992000 81.013410 17.104598
2017 1 92.288000 0.000000 15.000000
2018 1 93.936000 1.493410 15.000000
2019 2 93.936000 2.272000 17.104598
2020 2 92.288000 3.765410 17.104598
2021 1 92.288000 4.544000 15.000000
2022 1 93.936000 6.037410 15.000000
2023 2 93.936000 6.816000 17.104598
2024 2 92.288000 8.309410 17.104598
2025 1 92.288000 9.088000 15.000000
2026 1 93.936000 10.581410 15.000000
2027 2 93.936000 11.360000 17.104598
2028 2 92.288000 12.853410 17.104598
2029 1 92.288000 13.632000 15.000000
2030 1 93.936000 15.125410 15.000000
2031 2 93.936000 15.904000 17.104598
2032 2 92.288000 17.397410 17.104598
2033 1 92.288000 18.176000 15.000000
2034 1 93.936000 19.669410 15.000000
2035 2 93.936000 20.448000 17.104598
2036 2 92.288000 21.941410 17.104598
2037 1 92.288000 22.720000 15.000000
2038 1 93.936000 24.213410 15.000000
2039 2 93.936000 24.992000 17.104598
2040 2 92.288000 26.485410 17.104598
2041 1 92.288000 27.264000 15.000000
2042 1 93.936000 28.757410 15.000000
2043 2 93.936000 29.536000 17.104598
2044 2 92.288000 31.029410 17.104598
2045 1 92.288000 31.808000 15.000000
2046 1 93.936000 33.301410 15.000000
2047 2 93.936000 34.080000 17.104598
2048 2 92.288000 35.573410 17.104598
2049 1 92.288000 36.352000 15.000000
2050 1 93.936000 37.845410 15.000000
2051 2 93.936000 38.624000 17.104598
2052 2 92.288000 40.117410 17.104598
2053 1 92.288000 40.896000 15.000000
2054 1 93.936000 42.389410 15.000000
2055 2 93.936000 43.168000 17.104598
2056 2 92.288000 44.661410 17.104598
2057 1 92.288000 45.440000 15.000000
2058 1 93.936000 46.933410 15.000000
2059 2 93.936000 47.712000 17.104598
2060 2 92.288000 49.205410 17.104598
2061 1 92.288000 49.984000 15.000000
2062 1 93.936000 51.477410 15.000000
2063 2 93.936000 52.256000 17.104598
2064 2 92.288000 53.749410 17.104598
2065 1 92.288000 54.528000 15.000000
2066 1 93.936000 56.021410 15.000000
2067 2 93.936000 56.800000 17.104598
2068 2 92.288000 58.293410 17.104598
2069 1 92.288000 59.072000 15.000000
2070 1 93.936000 60.565410 15.000000
2071 2 93.936000 61.344000 17.104598
2072 2 92.288000 62.837410 17.104598
2073 1 92.288000 63.616000 15.000000
2074 1 93.936000 65.109410 15.000000
2075 2 93.936000 65.888000 17.104598
2076 2 92.288000 67.381410 17.104598
2077 1 92.288000 68.160000 15.000000
2078 1 93.936000 69.653410 15.000000
2079 2 93.936000 70.432000 17.104598
2080 2 92.288000 71.925410 17.104598
2081 1 92.288000 72.704000 15.000000
2082 1 93.936000 74.197410 15.000000
2083 2 93.936000 74.976000 17.104598
2084 2 92.288000 76.469410 17.104598
2085 1 92.288000 77.248000 15.000000
2086 1 93.936000 78.741410 15.000000
2087 2 93.936000 79.520000 17.104598
2088 2 92.288000 81.013410 17.104598
2089 1 95.584000 0.000000 15.000000
2090 1 97.232000 1.493410 15.000000
2091 2 97.232000 2.272000 17.104598
2092 2 95.584000 3.765410 17.104598
2093 1 95.584000 4.544000 15.000000
2094 1 97.232000 6.037410 15.000000
2095 2 97.232000 6.816000 17.104598
2096 2 95.584000 8.309410 17.104598
2097 1 95.584000 9.088000 15.000000
2098 1 97.232000 10.581410 15.000000
2099 2 97.232000 11.360000 17.104598
2100 2 95.584000 12.853410 17.104598
2101 1 95.584000 13.632000 15.000000
2102 1 97.232000 15.125410 15.000000
2103 2 97.232000 15.904000 17.104598
2104 2 95.584000 17.397410 17.104598
2105 1 95.584000 18.176000 15.000000
2106 1 97.232000 19.669410 15.000000
2107 2 97.232000 20.448000 17.104598
2108 2 95.584000 21.941410 17.104598
2109 1 95.584000 22.720000 15.000000
2110 1 97.232000 24.213410 15.000000
2111 2 97.232000 24.992000 17.104598
2112 2 95.584000 26.485410 17.104598
2113 1 95.584000 27.264000 15.000000
2114 1 97.232000 28.757410 15.000000
2115 2 97.232000 29.536000 17.104598
2116 2 95.584000 31.029410 17.104598
2117 1 95.584000 31.808000 15.000000
2118 1 97.232000 33.301410 15.000000
2119 2 97.232000 34.080000 17.104598
2120 2 95.584000 35.573410 17.104598
2121 1 95.584000 36.352000 15.000000
2122 1 97.232000 37.845410 15.000000
2123 2 97.232000 38.624000 17.104598
2124 2 95.584000 40.117410 17.104598
2125 1 95.584000 40.896000 15.000000
2126 1 97.232000 42.389410 15.000000
2127 2 97.232000 43.168000 17.104598
2128 2 95.584000 44.661410 17.104598
2129 1 95.584000 45.440000 15.000000
2130 1 97.232000 46.933410 15.000000
2131 2 97.232000 47.712000 17.104598
2132 2 95.584000 49.205410 17.104598
2133 1 95.584000 49.984000 15.000000
2134 1 97.232000 51.477410 15.000000
2135 2 97.232000 52.256000 17.104598
2136 2 95.584000 53.749410 17.104598
2137 1 95.584000 54.528000 15.000000
2138 1 97.232000 56.021410 15.000000
2139 2 97.232000 56.800000 17.104598
2140 2 95.584000 58.293410 17.104598
2141 1 95.584000 59.072000 15.000000
2142 1 97.232000 60.565410 15.000000
2143 2 97.232000 61.344000 17.104598
2144 2 95.584000 62.837410 17.104598
2145 1 95.584000 63.616000 15.000000
2146 1 97.232000 65.109410 15.000000
2147 2 97.232000 65.888000 17.104598
2148 2 95.584000 67.381410 17.104598
2149 1 95.584000 68.160000 15.000000
2150 1 97.232000 69.653410 15.000000
2151 2 97.232000 70.432000 17.104598
2152 2 95.584000 71.925410 17.104598
2153 1 95.584000 72.704000 15.000000
2154 1 97.232000 74.197410 15.000000
2155 2 97.232000 74.976000 17.104598
2156 2 95.584000 76.469410 17.104598
2157 1 95.584000 77.248000 15.000000
2158 1 97.232000 78.741410 15.000000
2159 2 97.232000 79.520000 17.104598
2160 2 95.584000 81.013410 17.104598
2161 1 98.880000 0.000000 15.000000
2162 1 100.528000 1.493410 15.000000
2163 2 100.528000 2.272000 17.104598
2164 2 98.880000 3.765410 17.104598
2165 1 98.880000 4.544000 15.000000
2166 1 100.528000 6.037410 15.000000
2167 2 100.528000 6.816000 17.104598
2168 2 98.880000 8.309410 17.104598
2169 1 98.880000 9.088000 15.000000
2170 1 100.528000 10.581410 15.000000
2171 2 100.528000 11.360000 17.104598
2172 2 98.880000 12.853410 17.104598
2173 1 98.880000 13.632000 15.000000
2174 1 100.528000 15.125410 15.000000
2175 2 100.528000 15.904000 17.104598
2176 2 98.880000 17.397410 17.104598
2177 1 98.880000 18.176000 15.000000
2178 1 100.528000 19.669410 15.000000
2179 2 100.528000 20.448000 17.104598
2180 2 98.880000 21.941410 17.104598
2181 1 98.880000 22.720000 15.000000
2182 1 100.528000 24.213410 15.000000
2183 2 100.528000 24.992000 17.104598
2184 2 98.880000 26.485410 17.104598
2185 1 98.880000 27.264000 15.000000
2186 1 100.528000 28.757410 15.000000
2187 2 100.528000 29.536000 17.104598
2188 2 98.880000 31.029410 17.104598
2189 1 98.880000 31.808000 15.000000
2190 1 100.528000 33.301410 15.000000
2191 2 100.528000 34.080000 17.104598
2192 2 98.880000 35.573410 17.104598
2193 1 98.880000 36.352000 15.000000
2194 1 100.528000 37.845410 15.000000
2195 2 100.528000 38.624000 17.104598
2196 2 98.880000 40.117410 17.104598
2197 1 98.880000 40.896000 15.000000
2198 1 100.528000 42.389410 15.000000
2199 2 100.528000 43.168000 17.104598
2200 2 98.880000 44.661410 17.104598
2201 1 98.880000 45.440000 15.000000
2202 1 100.528000 46.933410 15.000000
2203 2 100.528000 47.712000 17.104598
2204 2 98.880000 49.205410 17.104598
2205 1 98.880000 49.984000 15.000000
2206 1 100.528000 51.477410 15.000000
2207 2 100.528000 52.256000 17.104598
2208 2 98.880000 53.749410 17.104598
2209 1 98.880000 54.528000 15.000000
2210 1 100.528000 56.021410 15.000000
2211 2 100.528000 56.800000 17.104598
2212 2 98.880000 58.293410 17.104598
2213 1 98.880000 59.072000 15.000000
2214 1 100.528000 60.565410 15.000000
2215 2 100.528000 61.344000 17.104598
2216 2 98.880000 62.837410 17.104598
2217 1 98.880000 63.616000 15.000000
2218 1 100.528000 65.109410 15.000000
2219 2 100.528000 65.888000 17.104598
2220 2 98.880000 67.381410 17.104598
2221 1 98.880000 68.160000 15.000000
2222 1 100.528000 69.653410 15.000000
2223 2 100.528000 70.432000 17.104598
2224 2 98.880000 71.925410 17.104598
2225 1 98.880000 72.704000 15.000000
2226 1 100.528000 74.197410 15.000000
2227 2 100.528000 74.976000 17.104598
2228 2 98.880000 76.469410 17.104598
2229 1 98.880000 77.248000 15.000000
2230 1 100.528000 78.741410 15.000000
2231 2 100.528000 79.520000 17.104598
2232 2 98.880000 81.013410 17.104598
2233 1 102.176000 0.000000 15.000000
2234 1 103.824000 1.493410 15.000000
2235 2 103.824000 2.272000 17.104598
2236 2 102.176000 3.765410 17.104598
2237 1 102.176000 4.544000 15.000000
2238 1 103.824000 6.037410 15.000000
2239 2 103.824000 6.816000 17.104598
2240 2 102.176000 8.309410 17.104598
2241 1 102.176000 9.088000 15.000000
2242 1 103.824000 10.581410 15.000000
2243 2 103.824000 11.360000 17.104598
2244 2 102.176000 12.853410 17.104598
2245 1 102.176000 13.632000 15.000000
2246 1 103.824000 15.125410 15.000000
2247 2 103.824000 15.904000 17.104598
2248 2 102.176000 17.397410 17.104598
2249 1 102.176000 18.176000 15.000000
2250 1 103.824000 19.669410 15.000000
2251 2 103.824000 20.448000 17.104598
2252 2 102.176000 21.941410 17.104598
2253 1 102.176000 22.720000 15.000000
2254 1 103.824000 24.213410 15.000000
2255 2 103.824000 24.992000 17.104598
2256 2 102.176000 26.485410 17.104598
2257 1 102.176000 27.264000 15.000000
2258 1 103.824000 28.757410 15.000000
2259 2 103.824000 29.536000 17.104598
2260 2 102.176000 31.029410 17.104598
2261 1 102.176000 31.808000 15.000000
2262 1 103.824000 33.301410 15.000000
2263 2 103.824000 34.080000 17.104598
2264 2 102.176000 35.573410 17.104598
2265 1 102.176000 36.352000 15.000000
2266 1 103.824000 37.845410 15.000000
2267 2 103.824000 38.624000 17.104598
2268 2 102.176000 40.117410 17.104598
2269 1 102.176000 40.896000 15.000000
2270 1 103.824000 42.389410 15.000000
2271 2 103.824000 43.168000 17.104598
2272 2 102.176000 44.661410 17.104598
2273 1 102.176000 45.440000 15.000000
2274 1 103.824000 46.933410 15.000000
2275 2 103.824000 47.712000 17.104598
2276 2 102.176000 49.205410 17.104598
2277 1 102.176000 49.984000 15.000000
2278 1 103.824000 51.477410 15.000000
2279 2 103.824000 52.256000 17.104598
2280 2 102.176000 53.749410 17.104598
2281 1 102.176000 54.528000 15.000000
2282 1 103.824000 56.021410 15.000000
2283 2 103.824000 56.800000 17.104598
2284 2 102.176000 58.293410 17.104598
2285 1 102.176000 59.072000 15.000000
2286 1 103.824000 60.565410 15.000000
2287 2 103.824000 61.344000 17.104598
2288 2 102.176000 62.837410 17.104598
2289 1 102.176000 63.616000 15.000000
2290 1 103.824000 65.109410 15.000000
2291 2 103.824000 65.888000 17.104598
2292 2 102.176000 67.381410 17.104598
2293 1 102.176000 68.160000 15.000000
2294 1 103.824000 69.653410 15.000000
2295 2 103.824000 70.432000 17.104598
2296 2 102.176000 71.925410 17.104598
2297 1 102.176000 72.704000 15.000000
2298 1 103.824000 74.197410 15.000000
2299 2 103.824000 74.976000 17.104598
2300 2 102.176000 76.469410 17.104598
2301 1 102.176000 77.248000 15.000000
2302 1 103.824000 78.741410 15.000000
2303 2 103.824000 79.520000 17.104598
2304 2 102.176000 81.013410 17.104598
2305 1 105.472000 0.000000 15.000000
2306 1 107.120000 1.493410 15.000000
2307 2 107.120000 2.272000 17.104598
2308 2 105.472000 3.765410 17.104598
2309 1 105.472000 4.544000 15.000000
2310 1 107.120000 6.037410 15.000000
2311 2 107.120000 6.816000 17.104598
2312 2 105.472000 8.309410 17.104598
2313 1 105.472000 9.088000 15.000000
2314 1 107.120000 10.581410 15.000000
2315 2 107.120000 11.360000 17.104598
2316 2 105.472000 12.853410 17.104598
2317 1 105.472000 13.632000 15.000000
2318 1 107.120000 15.125410 15.000000
2319 2 107.120000 15.904000 17.104598
2320 2 105.472000 17.397410 17.104598
2321 1 105.472000 18.176000 15.000000
2322 1 107.120000 19.669410 15.000000
2323 2 107.120000 20.448000 17.104598
2324 2 105.472000 21.941410 17.104598
2325 1 105.472000 22.720000 15.000000
2326 1 107.120000 24.213410 15.000000
2327 2 107.120000 24.992000 17.104598
2328 2 105.472000 26.485410 17.104598
2329 1 105.472000 27.264000 15.000000
2330 1 107.120000 28.757410 15.000000
2331 2 107.120000 29.536000 17.104598
2332 2 105.472000 31.029410 17.104598
2333 1 105.472000 31.808000 15.000000
2334 1 107.120000 33.301410 15.000000
2335 2 107.120000 34.080000 17.104598
2336 2 105.472000 35.573410 17.104598
2337 1 105.472000 36.352000 15.000000
2338 1 107.120000 37.845410 15.000000
2339 2 107.120000 38.624000 17.104598
2340 2 105.472000 40.117410 17.104598
2341 1 105.472000 40.896000 15.000000
2342 1 107.120000 42.389410 15.000000
2343 2 107.120000 43.168000 17.104598
2344 2 105.472000 44.661410 17.104598
2345 1 105.472000 45.440000 15.000000
2346 1 107.120000 46.933410 15.000000
2347 2 107.120000 47.712000 17.104598
2348 2 105.472000 49.205410 17.104598
2349 1 105.472000 49.984000 15.000000
2350 1 107.120000 51.477410 15.000000
2351 2 107.120000 52.256000 17.104598
2352 2 105.472000 53.749410 17.104598
2353 1 105.472000 54.528000 15.000000
2354 1 107.120000 56.021410 15.000000
2355 2 107.120000 56.800000 17.104598
2356 2 105.472000 58.293410 17.104598
2357 1 105.472000 59.072000 15.000000
2358 1 107.120000 60.565410 15.000000
2359 2 107.120000 61.344000 17.104598
2360 2 105.472000 62.837410 17.104598
2361 1 105.472000 63.616000 15.000000
2362 1 107.120000 65.109410 15.000000
2363 2 107.120000 65.888000 17.104598
2364 2 105.472000 67.381410 17.104598
2365 1 105.472000 68.160000 15.000000
2366 1 107.120000 69.653410 15.000000
2367 2 107.120000 70.432000 17.104598
2368 2 105.472000 71.925410 17.104598
2369 1 105.472000 72.704000 15.000000
2370 1 107.120000 74.197410 15.000000
2371 2 107.120000 74.976000 17.104598
2372 2 105.472000 76.469410 17.104598
2373 1 105.472000 77.248000 15.000000
2374 1 107.120000 78.741410 15.000000
2375 2 107.120000 79.520000 17.104598
2376 2 105.472000 81.013410 17.104598
2377 1 108.768000 0.000000 15.000000
2378 1 110.416000 1.493410 15.000000
2379 2 110.416000 2.272000 17.104598
2380 2 108.768000 3.765410 17.104598
2381 1 108.768000 4.544000 15.000000
2382 1 110.416000 6.037410 15.000000
2383 2 110.416000 6.816000 17.104598
2384 2 108.768000 8.309410 17.104598
2385 1 108.768000 9.088000 15.000000
2386 1 110.416000 10.581410 15.000000
2387 2 110.416000 11.360000 17.104598
2388 2 108.768000 12.853410 17.104598
2389 1 108.768000 13.632000 15.000000
2390 1 110.416000 15.125410 15.000000
2391 2 110.416000 15.904000 17.104598
2392 2 108.768000 17.397410 17.104598
2393 1 108.768000 18.176000 15.000000
2394 1 110.416000 19.669410 15.000000
2395 2 110.416000 20.448000 17.104598
2396 2 108.768000 21.941410 17.104598
2397 1 108.768000 22.720000 15.000000
2398 1 110.416000 24.213410 15.000000
2399 2 110.416000 24.992000 17.104598
2400 2 108.768000 26.485410 17.104598
2401 1 108.768000 27.264000 15.000000
2402 1 110.416000 28.757410 15.000000
2403 2 110.416000 29.536000 17.104598
2404 2 108.768000 31.029410 17.104598
2405 1 108.768000 31.808000 15.000000
2406 1 110.416000 33.301410 15.000000
2407 2 110.416000 34.080000 17.104598
2408 2 108.768000 35.573410 17.104598
2409 1 108.768000 36.352000 15.000000
2410 1 110.416000 37.845410 15.000000
2411 2 110.416000 38.624000 17.104598
2412 2 108.768000 40.117410 17.104598
2413 1 108.768000 40.896000 15.000000
2414 1 110.416000 42.389410 15.000000
2415 2 110.416000 43.168000 17.104598
2416 2 108.768000 44.661410 17.104598
2417 1 108.768000 45.440000 15.000000
2418 1 110.416000 46.933410 15.000000
2419 2 110.416000 47.712000 17.104598
2420 2 108.768000 49.205410 17.104598
2421 1 108.768000 49.984000 15.000000
2422 1 110.416000 51.477410 15.000000
2423 2 110.416000 52.256000 17.104598
2424 2 108.768000 53.749410 17.104598
2425 1 108.768000 54.528000 15.000000
2426 1 110.416000 56.021410 15.000000
2427 2 110.416000 56.800000 17.104598
2428 2 108.768000 58.293410 17.104598
2429 1 108.768000 59.072000 15.000000
2430 1 110.416000 60.565410 15.000000
2431 2 110.416000 61.344000 17.104598
2432 2 108.768000 62.837410 17.104598
2433 1 108.768000 63.616000 15.000000
2434 1 110.416000 65.109410 15.000000
2435 2 110.416000 65.888000 17.104598
2436 2 108.768000 67.381410 17.104598
2437 1 108.768000 68.160000 15.000000
2438 1 110.416000 69.653410 15.000000
2439 2 110.416000 70.432000 17.104598
2440 2 108.768000 71.925410 17.104598
2441 1 108.768000 72.704000 15.000000
2442 1 110.416000 74.197410 15.000000
2443 2 110.416000 74.976000 17.104598
2444 2 108.768000 76.469410 17.104598
2445 1 108.768000 77.248000 15.000000
2446 1 110.416000 78.741410 15.000000
2447 2 110.416000 79.520000 17.104598
2448 2 108.768000 81.013410 17.104598
2449 1 112.064000 0.000000 15.000000
2450 1 113.712000 1.493410 15.000000
2451 2 113.712000 2.272000 17.104598
2452 2 112.064000 3.765410 17.104598
2453 1 112.064000 4.544000 15.000000
2454 1 113.712000 6.037410 15.000000
2455 2 113.712000 6.816000 17.104598
2456 2 112.064000 8.309410 17.104598
2457 1 112.064000 9.088000 15.000000
2458 1 113.712000 10.581410 15.000000
2459 2 113.712000 11.360000 17.104598
2460 2 112.064000 12.853410 17.104598
2461 1 112.064000 13.632000 15.000000
2462 1 113.712000 15.125410 15.000000
2463 2 113.712000 15.904000 17.104598
2464 2 112.064000 17.397410 17.104598
2465 1 112.064000 18.176000 15.000000
2466 1 113.712000 19.669410 15.000000
2467 2 113.712000 20.448000 17.104598
2468 2 112.064000 21.941410 17.104598
2469 1 112.064000 22.720000 15.000000
2470 1 113.712000 24.213410 15.000000
2471 2 113.712000 24.992000 17.104598
2472 2 112.064000 26.485410 17.104598
2473 1 112.064000 27.264000 15.000000
2474 1 113.712000 28.757410 15.000000
2475 2 113.712000 29.536000 17.104598
2476 2 112.064000 31.029410 17.104598
2477 1 112.064000 31.808000 15.000000
2478 1 113.712000 33.301410 15.000000
2479 2 113.712000 34.080000 17.104598
2480 2 112.064000 35.573410 17.104598
2481 1 112.064000 36.352000 15.000000
2482 1 113.712000 37.845410 15.000000
2483 2 113.712000 38.624000 17.104598
2484 2 112.064000 40.117410 17.104598
2485 1 112.064000 40.896000 15.000000
2486 1 113.712000 42.389410 15.000000
2487 2 113.712000 43.168000 17.104598
2488 2 112.064000 44.661410 17.104598
2489 1 112.064000 45.440000 15.000000
2490 1 113.712000 46.933410 15.000000
2491 2 113.712000 47.712000 17.104598
2492 2 112.064000 49.205410 17.104598
2493 1 112.064000 49.984000 15.000000
2494 1 113.712000 51.477410 15.000000
2495 2 113.712000 52.256000 17.104598
2496 2 112.064000 53.749410 17.104598
2497 1 112.064000 54.528000 15.000000
2498 1 113.712000 56.021410 15.000000
2499 2 113.712000 56.800000 17.104598
2500 2 112.064000 58.293410 17.104598
2501 1 112.064000 59.072000 15.000000
2502 1 113.712000 60.565410 15.000000
2503 2 113.712000 61.344000 17.104598
2504 2 112.064000 62.837410 17.104598
2505 1 112.064000 63.616000 15.000000
2506 1 113.712000 65.109410 15.000000
2507 2 113.712000 65.888000 17.104598
2508 2 112.064000 67.381410 17.104598
2509 1 112.064000 68.160000 15.000000
2510 1 113.712000 69.653410 15.000000
2511 2 113.712000 70.432000 17.104598
2512 2 112.064000 71.925410 17.104598
2513 1 112.064000 72.704000 15.000000
2514 1 113.712000 74.197410 15.000000
2515 2 113.712000 74.976000 17.104598
2516 2 112.064000 76.469410 17.104598
2517 1 112.064000 77.248000 15.000000
2518 1 113.712000 78.741410 15.000000
2519 2 113.712000 79.520000 17.104598
2520 2 112.064000 81.013410 17.104598
2521 1 115.360000 0.000000 15.000000
2522 1 117.008000 1.493410 15.000000
2523 2 117.008000 2.272000 17.104598
2524 2 115.360000 3.765410 17.104598
2525 1 115.360000 4.544000 15.000000
2526 1 117.008000 6.037410 15.000000
2527 2 117.008000 6.816000 17.104598
2528 2 115.360000 8.309410 17.104598
2529 1 115.360000 9.088000 15.000000
2530 1 117.008000 10.581410 15.000000
2531 2 117.008000 11.360000 17.104598
2532 2 115.360000 12.853410 17.104598
2533 1 115.360000 13.632000 15.000000
2534 1 117.008000 15.125410 15.000000
2535 2 117.008000 15.904000 17.104598
2536 2 115.360000 17.397410 17.104598
2537 1 115.360000 18.176000 15.000000
2538 1 117.008000 19.669410 15.000000
2539 2 117.008000 20.448000 17.104598
2540 2 115.360000 21.941410 17.104598
2541 1 115.360000 22.720000 15.000000
2542 1 117.008000 24.213410 15.000000
2543 2 117.008000 24.992000 17.104598
2544 2 115.360000 26.485410 17.104598
2545 1 115.360000 27.264000 15.000000
2546 1 117.008000 28.757410 15.000000
2547 2 117.008000 29.536000 17.104598
2548 2 115.360000 31.029410 17.104598
2549 1 115.360000 31.808000 15.000000
2550 1 117.008000 33.301410 15.000000
2551 2 117.008000 34.080000 17.104598
2552 2 115.360000 35.573410 17.104598
2553 1 115.360000 36.352000 15.000000
2554 1 117.008000 37.845410 15.000000
2555 2 117.008000 38.624000 17.104598
2556 2 115.360000 40.117410 17.104598
2557 1 115.360000 40.896000 15.000000
2558 1 117.008000 42.389410 15.000000
2559 2 117.008000 43.168000 17.104598
2560 2 115.360000 44.661410 17.104598
2561 1 115.360000 45.440000 15.000000
2562 1 117.008000 46.933410 15.000000
2563 2 117.008000 47.712000 17.104598
2564 2 115.360000 49.205410 17.104598
2565 1 115.360000 49.984000 15.000000
2566 1 117.008000 51.477410 15.000000
2567 2 117.008000 52.256000 17.104598
2568 2 115.360000 53.749410 17.104598
2569 1 115.360000 54.528000 15.000000
2570 1 117.008000 56.021410 15.000000
2571 2 117.008000 56.800000 17.104598
2572 2 115.360000 58.293410 17.104598
2573 1 115.360000 59.072000 15.000000
2574 1 117.008000 60.565410 15.000000
2575 2 117.008000 61.344000 17.104598
2576 2 115.360000 62.837410 17.104598
2577 1 115.360000 63.616000 15.000000
2578 1 117.008000 65.109410 15.000000
2579 2 117.008000 65.888000 17.104598
2580 2 115.360000 67.381410 17.104598
2581 1 115.360000 68.160000 15.000000
2582 1 117.008000 69.653410 15.000000
2583 2 117.008000 70.432000 17.104598
2584 2 115.360000 71.925410 17.104598
2585 1 115.360000 72.704000 15.000000
2586 1 117.008000 74.197410 15.000000
2587 2 117.008000 74.976000 17.104598
2588 2 115.360000 76.469410 17.104598
2589 1 115.360000 77.248000 15.000000
2590 1 117.008000 78.741410 15.000000
2591 2 117.008000 79.520000 17.104598
2592 2 115.360000 81.013410 17.104598
2593 1 118.656000 0.000000 15.000000
2594 1 120.304000 1.493410 15.000000
2595 2 120.304000 2.272000 17.104598
2596 2 118.656000 3.765410 17.104598
2597 1 118.656000 4.544000 15.000000
2598 1 120.304000 6.037410 15.000000
2599 2 120.304000 6.816000 17.104598
2600 2 118.656000 8.309410 17.104598
2601 1 118.656000 9.088000 15.000000
2602 1 120.304000 10.581410 15.000000
2603 2 120.304000 11.360000 17.104598
2604 2 118.656000 12.853410 17.104598
2605 1 118.656000 13.632000 15.000000
2606 1 120.304000 15.125410 15.000000
2607 2 120.304000 15.904000 17.104598
2608 2 118.656000 17.397410 17.104598
2609 1 118.656000 18.176000 15.000000
2610 1 120.304000 19.669410 15.000000
2611 2 120.304000 20.448000 17.104598
2612 2 118.656000 21.941410 17.104598
2613 1 118.656000 22.720000 15.000000
2614 1 120.304000 24.213410 15.000000
2615 2 120.304000 24.992000 17.104598
2616 2 118.656000 26.485410 17.104598
2617 1 118.656000 27.264000 15.000000
2618 1 120.304000 28.757410 15.000000
2619 2 120.304000 29.536000 17.104598
2620 2 118.656000 31.029410 17.104598
2621 1 118.656000 31.808000 15.000000
2622 1 120.304000 33.301410 15.000000
2623 2 120.304000 34.080000 17.104598
2624 2 118.656000 35.573410 17.104598
2625 1 118.656000 36.352000 15.000000
2626 1 120.304000 37.845410 15.000000
2627 2 120.304000 38.624000 17.104598
2628 2 118.656000 40.117410 17.104598
2629 1 118.656000 40.896000 15.000000
2630 1 120.304000 42.389410 15.000000
2631 2 120.304000 43.168000 17.104598
2632 2 118.656000 44.661410 17.104598
2633 1 118.656000 45.440000 15.000000
2634 1 120.304000 46.933410 15.000000
2635 2 120.304000 47.712000 17.104598
2636 2 118.656000 49.205410 17.104598
2637 1 118.656000 49.984000 15.000000
2638 1 120.304000 51.477410 15.000000
2639 2 120.304000 52.256000 17.104598
2640 2 118.656000 53.749410 17.104598
2641 1 118.656000 54.528000 15.000000
2642 1 120.304000 56.021410 15.000000
2643 2 120.304000 56.800000 17.104598
2644 2 118.656000 58.293410 17.104598
2645 1 118.656000 59.072000 15.000000
2646 1 120.304000 60.565410 15.000000
2647 2 120.304000 61.344000 17.104598
2648 2 118.656000 62.837410 17.104598
2649 1 118.656000 63.616000 15.000000
2650 1 120.304000 65.109410 15.000000
2651 2 120.304000 65.888000 17.104598
2652 2 118.656000 67.381410 17.104598
2653 1 118.656000 68.160000 15.000000
2654 1 120.304000 69.653410 15.000000
2655 2 120.304000 70.432000 17.104598
2656 2 118.656000 71.925410 17.104598
2657 1 118.656000 72.704000 15.000000
2658 1 120.304000 74.197410 15.000000
2659 2 120.304000 74.976000 17.104598
2660 2 118.656000 76.469410 17.104598
2661 1 118.656000 77.248000 15.000000
2662 1 120.304000 78.741410 15.000000
2663 2 120.304000 79.520000 17.104598
2664 2 118.656000 81.013410 17.104598
2665 1 121.952000 0.000000 15.000000
2666 1 123.600000 1.493410 15.000000
2667 2 123.600000 2.272000 17.104598
2668 2 121.952000 3.765410 17.104598
2669 1 121.952000 4.544000 15.000000
2670 1 123.600000 6.037410 15.000000
2671 2 123.600000 6.816000 17.104598
2672 2 121.952000 8.309410 17.104598
2673 1 121.952000 9.088000 15.000000
2674 1 123.600000 10.581410 15.000000
2675 2 123.600000 11.360000 17.104598
2676 2 121.952000 12.853410 17.104598
2677 1 121.952000 13.632000 15.000000
2678 1 123.600000 15.125410 15.000000
2679 2 123.600000 15.904000 17.104598
2680 2 121.952000 17.397410 17.104598
2681 1 121.952000 18.176000 15.000000
2682 1 123.600000 19.669410 15.000000
2683 2 123.600000 20.448000 17.104598
2684 2 121.952000 21.941410 17.104598
2685 1 121.952000 22.720000 15.000000
2686 1 123.600000 24.213410 15.000000
2687 2 123.600000 24.992000 17.104598
2688 2 121.952000 26.485410 17.104598
2689 1 121.952000 27.264000 15.000000
2690 1 123.600000 28.757410 15.000000
2691 2 123.600000 29.536000 17.104598
2692 2 121.952000 31.029410 17.104598
2693 1 121.952000 31.808000 15.000000
2694 1 123.600000 33.301410 15.000000
2695 2 123.600000 34.080000 17.104598
2696 2 121.952000 35.573410 17.104598
2697 1 121.952000 36.352000 15.000000
2698 1 123.600000 37.845410 15.000000
2699 2 123.600000 38.624000 17.104598
2700 2 121.952000 40.117410 17.104598
2701 1 121.952000 40.896000 15.000000
2702 1 123.600000 42.389410 15.000000
2703 2 123.600000 43.168000 17.104598
2704 2 121.952000 44.661410 17.104598
2705 1 121.952000 45.440000 15.000000
2706 1 123.600000 46.933410 15.000000
2707 2 123.600000 47.712000 17.104598
2708 2 121.952000 49.205410 17.104598
2709 1 121.952000 49.984000 15.000000
2710 1 123.600000 51.477410 15.000000
2711 2 123.600000 52.256000 17.104598
2712 2 121.952000 53.749410 17.104598
2713 1 121.952000 54.528000 15.000000
2714 1 123.600000 56.021410 15.000000
2715 2 123.600000 56.800000 17.104598
2716 2 121.952000 58.293410 17.104598
2717 1 121.952000 59.072000 15.000000
2718 1 123.600000 60.565410 15.000000
2719 2 123.600000 61.344000 17.104598
2720 2 121.952000 62.837410 17.104598
2721 1 121.952000 63.616000 15.000000
2722 1 123.600000 65.109410 15.000000
2723 2 123.600000 65.888000 17.104598
2724 2 121.952000 67.381410 17.104598
2725 1 121.952000 68.160000 15.000000
2726 1 123.600000 69.653410 15.000000
2727 2 123.600000 70.432000 17.104598
2728 2 121.952000 71.925410 17.104598
2729 1 121.952000 72.704000 15.000000
2730 1 123.600000 74.197410 15.000000
2731 2 123.600000 74.976000 17.104598
2732 2 121.952000 76.469410 17.104598
2733 1 121.952000 77.248000 15.000000
2734 1 123.600000 78.741410 15.000000
2735 2 123.600000 79.520000 17.104598
2736 2 121.952000 81.013410 17.104598
2737 1 125.248000 0.000000 15.000000
2738 1 126.896000 1.493410 15.000000
2739 2 126.896000 2.272000 17.104598
2740 2 125.248000 3.765410 17.104598
2741 1 125.248000 4.544000 15.000000
2742 1 126.896000 6.037410 15.000000
2743 2 126.896000 6.816000 17.104598
2744 2 125.248000 8.309410 17.104598
2745 1 125.248000 9.088000 15.000000
2746 1 126.896000 10.581410 15.000000
2747 2 126.896000 11.360000 17.104598
2748 2 125.248000 12.853410 17.104598
2749 1 125.248000 13.632000 15.000000
2750 1 126.896000 15.125410 15.000000
2751 2 126.896000 15.904000 17.104598
2752 2 125.248000 17.397410 17.104598
2753 1 125.248000 18.176000 15.000000
2754 1 126.896000 19.669410 15.000000
2755 2 126.896000 20.448000 17.104598
2756 2 125.248000 21.941410 17.104598
2757 1 125.248000 22.720000 15.000000
2758 1 126.896000 24.213410 15.000000
2759 2 126.896000 24.992000 17.104598
2760 2 125.248000 26.485410 17.104598
2761 1 125.248000 27.264000 15.000000
2762 1 126.896000 28.757410 15.000000
2763 2 126.896000 29.536000 17.104598
2764 2 125.248000 31.029410 17.104598
2765 1 125.248000 31.808000 15.000000
2766 1 126.896000 33.301410 15.000000
2767 2 126.896000 34.080000 17.104598
2768 2 125.248000 35.573410 17.104598
2769 1 125.248000 36.352000 15.000000
2770 1 126.896000 37.845410 15.000000
2771 2 126.896000 38.624000 17.104598
2772 2 125.248000 40.117410 17.104598
2773 1 125.248000 40.896000 15.000000
2774 1 126.896000 42.389410 15.000000
2775 2 126.896000 43.168000 17.104598
2776 2 125.248000 44.661410 17.104598
2777 1 125.248000 45.440000 15.000000
2778 1 126.896000 46.933410 15.000000
2779 2 126.896000 47.712000 17.104598
2780 2 125.248000 49.205410 17.104598
2781 1 125.248000 49.984000 15.000000
2782 1 126.896000 51.477410 15.000000
2783 2 126.896000 52.256000 17.104598
2784 2 125.248000 53.749410 17.104598
2785 1 125.248000 54.528000 15.000000
2786 1 126.896000 56.021410 15.000000
2787 2 126.896000 56.800000 17.104598
2788 2 125.248000 58.293410 17.104598
2789 1 125.248000 59.072000 15.000000
2790 1 126.896000 60.565410 15.000000
2791 2 126.896000 61.344000 17.104598
2792 2 125.248000 62.837410 17.104598
2793 1 125.248000 63.616000 15.000000
2794 1 126.896000 65.109410 15.000000
2795 2 126.896000 65.888000 17.104598
2796 2 125.248000 67.381410 17.104598
2797 1 125.248000 68.160000 15.000000
2798 1 126.896000 69.653410 15.000000
2799 2 126.896000 70.432000 17.104598
2800 2 125.248000 71.925410 17.104598
2801 1 125.248000 72.704000 15.000000
2802 1 126.896000 74.197410 15.000000
2803 2 126.896000 74.976000 17.104598
2804 2 125.248000 76.469410 17.104598
2805 1 125.248000 77.248000 15.000000
2806 1 126.896000 78.741410 15.000000
2807 2 126.896000 79.520000 17.104598
2808 2 125.248000 81.013410 17.104598
2809 1 128.544000 0.000000 15.000000
2810 1 130.192000 1.493410 15.000000
2811 2 130.192000 2.272000 17.104598
2812 2 128.544000 3.765410 17.104598
2813 1 128.544000 4.544000 15.000000
2814 1 130.192000 6.037410 15.000000
2815 2 130.192000 6.816000 17.104598
2816 2 128.544000 8.309410 17.104598
2817 1 128.544000 9.088000 15.000000
2818 1 130.192000 10.581410 15.000000
2819 2 130.192000 11.360000 17.104598
2820 2 128.544000 12.853410 17.104598
2821 1 128.544000 13.632000 15.000000
2822 1 130.192000 15.125410 15.000000
2823 2 130.192000 15.904000 17.104598
2824 2 128.544000 17.397410 17.104598
2825 1 128.544000 18.176000 15.000000
2826 1 130.192000 19.669410 15.000000
2827 2 130.192000 20.448000 17.104598
2828 2 128.544000 21.941410 17.104598
2829 1 128.544000 22.720000 15.000000
2830 1 130.192000 24.213410 15.000000
2831 2 130.192000 24.992000 17.104598
2832 2 128.544000 26.485410 17.104598
2833 1 128.544000 27.264000 15.000000
2834 1 130.192000 28.757410 15.000000
2835 2 130.192000 29.536000 17.104598
2836 2 128.544000 31.029410 17.104598
2837 1 128.544000 31.808000 15.000000
2838 1 130.192000 33.301410 15.000000
2839 2 130.192000 34.080000 17.104598
2840 2 128.544000 35.573410 17.104598
2841 1 128.544000 36.352000 15.000000
2842 1 130.192000 37.845410 15.000000
2843 2 130.192000 38.624000 17.104598
2844 2 128.544000 40.117410 17.104598
2845 1 128.544000 40.896000 15.000000
2846 1 130.192000 42.389410 15.000000
2847 2 130.192000 43.168000 17.104598
2848 2 128.544000 44.661410 17.104598
2849 1 128.544000 45.440000 15.000000
2850 1 130.192000 46.933410 15.000000
2851 2 130.192000 47.712000 17.104598
2852 2 128.544000 49.205410 17.104598
2853 1 128.544000 49.984000 15.000000
2854 1 130.192000 51.477410 15.000000
2855 2 130.192000 52.256000 17.104598
2856 2 128.544000 53.749410 17.104598
2857 1 128.544000 54.528000 15.000000
2858 1 130.192000 56.021410 15.000000
2859 2 130.192000 56.800000 17.104598
2860 2 128.544000 58.293410 17.104598
2861 1 128.544000 59.072000 15.000000
2862 1 130.192000 60.565410 15.000000
2863 2 130.192000 61.344000 17.104598
2864 2 128.544000 62.837410 17.104598
2865 1 128.544000 63.616000 15.000000
2866 1 130.192000 65.109410 15.000000
2867 2 130.192000 65.888000 17.104598
2868 2 128.544000 67.381410 17.104598
2869 1 128.544000 68.160000 15.000000
2870 1 130.192000 69.653410 15.000000
2871 2 130.192000 70.432000 17.104598
2872 2 128.544000 71.925410 17.104598
2873 1 128.544000 72.704000 15.000000
2874 1 130.192000 74.197410 15.000000
2875 2 130.192000 74.976000 17.104598
2876 2 128.544000 76.469410 17.104598
2877 1 128.544000 77.248000 15.000000
2878 1 130.192000 78.741410 15.000000
2879 2 130.192000 79.520000 17.104598
2880 2 128.544000 81.013410 17.104598
2881 1 131.840000 0.000000 15.000000
2882 1 133.488000 1.493410 15.000000
2883 2 133.488000 2.272000 17.104598
2884 2 131.840000 3.765410 17.104598
2885 1 131.840000 4.544000 15.000000
2886 1 133.488000 6.037410 15.000000
2887 2 133.488000 6.816000 17.104598
2888 2 131.840000 8.309410 17.104598
2889 1 131.840000 9.088000 15.000000
2890 1 133.488000 10.581410 15.000000
2891 2 133.488000 11.360000 17.104598
2892 2 131.840000 12.853410 17.104598
2893 1 131.840000 13.632000 15.000000
2894 1 133.488000 15.125410 15.000000
2895 2 133.488000 15.904000 17.104598
2896 2 131.840000 17.397410 17.104598
2897 1 131.840000 18.176000 15.000000
2898 1 133.488000 19.669410 15.000000
2899 2 133.488000 20.448000 17.104598
2900 2 131.840000 21.941410 17.104598
2901 1 131.840000 22.720000 15.000000
2902 1 133.488000 24.213410 15.000000
2903 2 133.488000 24.992000 17.104598
2904 2 131.840000 26.485410 17.104598
2905 1 131.840000 27.264000 15.000000
2906 1 133.488000 28.757410 15.000000
2907 2 133.488000 29.536000 17.104598
2908 2 131.840000 31.029410 17.104598
2909 1 131.840000 31.808000 15.000000
2910 1 133.488000 33.301410 15.000000
2911 2 133.488000 34.080000 17.104598
2912 2 131.840000 35.573410 17.104598
2913 1 131.840000 36.352000 15.000000
2914 1 133.488000 37.845410 15.000000
2915 2 133.488000 38.624000 17.104598
2916 2 131.840000 40.117410 17.104598
2917 1 131.840000 40.896000 15.000000
2918 1 133.488000 42.389410 15.000000
2919 2 133.488000 43.168000 17.104598
2920 2 131.840000 44.661410 17.104598
2921 1 131.840000 45.440000 15.000000
2922 1 133.488000 46.933410 15.000000
2923 2 133.488000 47.712000 17.104598
2924 2 131.840000 49.205410 17.104598
2925 1 131.840000 49.984000 15.000000
2926 1 133.488000 51.477410 15.000000
2927 2 133.488000 52.256000 17.104598
2928 2 131.840000 53.749410 17.104598
2929 1 131.840000 54.528000 15.000000
2930 1 133.488000 56.021410 15.000000
2931 2 133.488000 56.800000 17.104598
2932 2 131.840000 58.293410 17.104598
2933 1 131.840000 59.072000 15.000000
2934 1 133.488000 60.565410 15.000000
2935 2 133.488000 61.344000 17.104598
2936 2 131.840000 62.837410 17.104598
2937 1 131.840000 63.616000 15.000000
2938 1 133.488000 65.109410 15.000000
2939 2 133.488000 65.888000 17.104598
2940 2 131.840000 67.381410 17.104598
2941 1 131.840000 68.160000 15.000000
2942 1 133.488000 69.653410 15.000000
2943 2 133.488000 70.432000 17.104598
2944 2 131.840000 71.925410 17.104598
2945 1 131.840000 72.704000 15.000000
2946 1 133.488000 74.197410 15.000000
2947 2 133.488000 74.976000 17.104598
2948 2 131.840000 76.469410 17.104598
2949 1 131.840000 77.248000 15.000000
2950 1 133.488000 78.741410 15.000000
2951 2 133.488000 79.520000 17.104598
2952 2 131.840000 81.013410 17.104598
2953 1 135.136000 0.000000 15.000000
2954 1 136.784000 1.493410 15.000000
2955 2 136.784000 2.272000 17.104598
2956 2 135.136000 3.765410 17.104598
2957 1 135.136000 4.544000 15.000000
2958 1 136.784000 6.037410 15.000000
2959 2 136.784000 6.816000 17.104598
2960 2 135.136000 8.309410 17.104598
2961 1 135.136000 9.088000 15.000000
2962 1 136.784000 10.581410 15.000000
2963 2 136.784000 11.360000 17.104598
2964 2 135.136000 12.853410 17.104598
2965 1 135.136000 13.632000 15.000000
2966 1 136.784000 15.125410 15.000000
2967 2 136.784000 15.904000 17.104598
2968 2 135.136000 17.397410 17.104598
2969 1 135.136000 18.176000 15.000000
2970 1 136.784000 19.669410 15.000000
2971 2 136.784000 20.448000 17.104598
2972 2 135.136000 21.941410 17.104598
2973 1 135.136000 22.720000 15.000000
2974 1 136.784000 24.213410 15.000000
2975 2 136.784000 24.992000 17.104598
2976 2 135.136000 26.485410 17.104598
2977 1 135.136000 27.264000 15.000000
2978 1 136.784000 28.757410 15.000000
2979 2 136.784000 29.536000 17.104598
2980 2 135.136000 31.029410 17.104598
2981 1 135.136000 31.808000 15.000000
2982 1 136.784000 33.301410 15.000000
2983 2 136.784000 34.080000 17.104598
2984 2 135.136000 35.573410 17.104598
2985 1 135.136000 36.352000 15.000000
2986 1 136.784000 37.845410 15.000000
2987 2 136.784000 38.624000 17.104598
2988 2 135.136000 40.117410 17.104598
2989 1 135.136000 40.896000 15.000000
2990 1 136.784000 42.389410 15.000000
2991 2 136.784000 43.168000 17.104598
2992 2 135.136000 44.661410 17.104598
2993 1 135.136000 45.440000 15.000000
2994 1 136.784000 46.933410 15.000000
2995 2 136.784000 47.712000 17.104598
2996 2 135.136000 49.205410 17.104598
2997 1 135.136000 49.984000 15.000000
2998 1 136.784000 51.477410 15.000000
2999 2 136.784000 52.256000 17.104598
3000 2 135.136000 53.749410 17.104598
3001 1 135.136000 54.528000 15.000000
3002 1 136.784000 56.021410 15.000000
3003 2 136.784000 56.800000 17.104598
3004 2 135.136000 58.293410 17.104598
3005 1 135.136000 59.072000 15.000000
3006 1 136.784000 60.565410 15.000000
3007 2 136.784000 61.344000 17.104598
3008 2 135.136000 62.837410 17.104598
3009 1 135.136000 63.616000 15.000000
3010 1 136.784000 65.109410 15.000000
3011 2 136.784000 65.888000 17.104598
3012 2 135.136000 67.381410 17.104598
3013 1 135.136000 68.160000 15.000000
3014 1 136.784000 69.653410 15.000000
3015 2 136.784000 70.432000 17.104598
3016 2 135.136000 71.925410 17.104598
3017 1 135.136000 72.704000 15.000000
3018 1 136.784000 74.197410 15.000000
3019 2 136.784000 74.976000 17.104598
3020 2 135.136000 76.469410 17.104598
3021 1 135.136000 77.248000 15.000000
3022 1 136.784000 78.741410 15.000000
3023 2 136.784000 79.520000 17.104598
3024 2 135.136000 81.013410 17.104598
3025 1 138.432000 0.000000 15.000000
3026 1 140.080000 1.493410 15.000000
3027 2 140.080000 2.272000 17.104598
3028 2 138.432000 3.765410 17.104598
3029 1 138.432000 4.544000 15.000000
3030 1 140.080000 6.037410 15.000000
3031 2 140.080000 6.816000 17.104598
3032 2 138.432000 8.309410 17.104598
3033 1 138.432000 9.088000 15.000000
3034 1 140.080000 10.581410 15.000000
3035 2 140.080000 11.360000 17.104598
3036 2 138.432000 12.853410 17.104598
3037 1 138.432000 13.632000 15.000000
3038 1 140.080000 15.125410 15.000000
3039 2 140.080000 15.904000 17.104598
3040 2 138.432000 17.397410 17.104598
3041 1 138.432000 18.176000 15.000000
3042 1 140.080000 19.669410 15.000000
3043 2 140.080000 20.448000 17.104598
3044 2 138.432000 21.941410 17.104598
3045 1 138.432000 22.720000 15.000000
3046 1 140.080000 24.213410 15.000000
3047 2 140.080000 24.992000 17.104598
3048 2 138.432000 26.485410 17.104598
3049 1 138.432000 27.264000 15.000000
3050 1 140.080000 28.757410 15.000000
3051 2 140.080000 29.536000 17.104598
3052 2 138.432000 31.029410 17.104598
3053 1 138.432000 31.808000 15.000000
3054 1 140.080000 33.301410 15.000000
3055 2 140.080000 34.080000 17.104598
3056 2 138.432000 35.573410 17.104598
3057 1 138.432000 36.352000 15.000000
3058 1 140.080000 37.845410 15.000000
3059 2 140.080000 38.624000 17.104598
3060 2 138.432000 40.117410 17.104598
3061 1 138.432000 40.896000 15.000000
3062 1 140.080000 42.389410 15.000000
3063 2 140.080000 43.168000 17.104598
3064 2 138.432000 44.661410 17.104598
3065 1 138.432000 45.440000 15.000000
3066 1 140.080000 46.933410 15.000000
3067 2 140.080000 47.712000 17.104598
3068 2 138.432000 49.205410 17.104598
3069 1 138.432000 49.984000 15.000000
3070 1 140.080000 51.477410 15.000000
3071 2 140.080000 52.256000 17.104598
3072 2 138.432000 53.749410 17.104598
3073 1 138.432000 54.528000 15.000000
3074 1 140.080000 56.021410 15.000000
3075 2 140.080000 56.800000 17.104598
3076 2 138.432000 58.293410 17.104598
3077 1 138.432000 59.072000 15.000000
3078 1 140.080000 60.565410 15.000000
3079 2 140.080000 61.344000 17.104598
3080 2 138.432000 62.837410 17.104598
3081 1 138.432000 63.616000 15.000000
3082 1 140.080000 65.109410 15.000000
3083 2 140.080000 65.888000 17.104598
3084 2 138.432000 67.381410 17.104598
3085 1 138.432000 68.160000 15.000000
3086 1 140.080000 69.653410 15.000000
3087 2 140.080000 70.432000 17.104598
3088 2 138.432000 71.925410 17.104598
3089 1 138.432000 72.704000 15.000000
3090 1 140.080000 74.197410 15.000000
3091 2 140.080000 74.976000 17.104598
3092 2 138.432000 76.469410 17.104598
3093 1 138.432000 77.248000 15.000000
3094 1 140.080000 78.741410 15.000000
3095 2 140.080000 79.520000 17.104598
3096 2 138.432000 81.013410 17.104598
3097 1 141.728000 0.000000 15.000000
3098 1 143.376000 1.493410 15.000000
3099 2 143.376000 2.272000 17.104598
3100 2 141.728000 3.765410 17.104598
3101 1 141.728000 4.544000 15.000000
3102 1 143.376000 6.037410 15.000000
3103 2 143.376000 6.816000 17.104598
3104 2 141.728000 8.309410 17.104598
3105 1 141.728000 9.088000 15.000000
3106 1 143.376000 10.581410 15.000000
3107 2 143.376000 11.360000 17.104598
3108 2 141.728000 12.853410 17.104598
3109 1 141.728000 13.632000 15.000000
3110 1 143.376000 15.125410 15.000000
3111 2 143.376000 15.904000 17.104598
3112 2 141.728000 17.397410 17.104598
3113 1 141.728000 18.176000 15.000000
3114 1 143.376000 19.669410 15.000000
3115 2 143.376000 20.448000 17.104598
3116 2 141.728000 21.941410 17.104598
3117 1 141.728000 22.720000 15.000000
3118 1 143.376000 24.213410 15.000000
3119 2 143.376000 24.992000 17.104598
3120 2 141.728000 26.485410 17.104598
3121 1 141.728000 27.264000 15.000000
3122 1 143.376000 28.757410 15.000000
3123 2 143.376000 29.536000 17.104598
3124 2 141.728000 31.029410 17.104598
3125 1 141.728000 31.808000 15.000000
3126 1 143.376000 33.301410 15.000000
3127 2 143.376000 34.080000 17.104598
3128 2 141.728000 35.573410 17.104598
3129 1 141.728000 36.352000 15.000000
3130 1 143.376000 37.845410 15.000000
3131 2 143.376000 38.624000 17.104598
3132 2 141.728000 40.117410 17.104598
3133 1 141.728000 40.896000 15.000000
3134 1 143.376000 42.389410 15.000000
3135 2 143.376000 43.168000 17.104598
3136 2 141.728000 44.661410 17.104598
3137 1 141.728000 45.440000 15.000000
3138 1 143.376000 46.933410 15.000000
3139 2 143.376000 47.712000 17.104598
3140 2 141.728000 49.205410 17.104598
3141 1 141.728000 49.984000 15.000000
3142 1 143.376000 51.477410 15.000000
3143 2 143.376000 52.256000 17.104598
3144 2 141.728000 53.749410 17.104598
3145 1 141.728000 54.528000 15.000000
3146 1 143.376000 56.021410 15.000000
3147 2 143.376000 56.800000 17.104598
3148 2 141.728000 58.293410 17.104598
3149 1 141.728000 59.072000 15.000000
3150 1 143.376000 60.565410 15.000000
3151 2 143.376000 61.344000 17.104598
3152 2 141.728000 62.837410 17.104598
3153 1 141.728000 63.616000 15.000000
3154 1 143.376000 65.109410 15.000000
3155 2 143.376000 65.888000 17.104598
3156 2 141.728000 67.381410 17.104598
3157 1 141.728000 68.160000 15.000000
3158 1 143.376000 69.653410 15.000000
3159 2 143.376000 70.432000 17.104598
3160 2 141.728000 71.925410 17.104598
3161 1 141.728000 72.704000 15.000000
3162 1 143.376000 74.197410 15.000000
3163 2 143.376000 74.976000 17.104598
3164 2 141.728000 76.469410 17.104598
3165 1 141.728000 77.248000 15.000000
3166 1 143.376000 78.741410 15.000000
3167 2 143.376000 79.520000 17.104598
3168 2 141.728000 81.013410 17.104598
3169 1 145.024000 0.000000 15.000000
3170 1 146.672000 1.493410 15.000000
3171 2 146.672000 2.272000 17.104598
3172 2 145.024000 3.765410 17.104598
3173 1 145.024000 4.544000 15.000000
3174 1 146.672000 6.037410 15.000000
3175 2 146.672000 6.816000 17.104598
3176 2 145.024000 8.309410 17.104598
3177 1 145.024000 9.088000 15.000000
3178 1 146.672000 10.581410 15.000000
3179 2 146.672000 11.360000 17.104598
3180 2 145.024000 12.853410 17.104598
3181 1 145.024000 13.632000 15.000000
3182 1 146.672000 15.125410 15.000000
3183 2 146.672000 15.904000 17.104598
3184 2 145.024000 17.397410 17.104598
3185 1 145.024000 18.176000 15.000000
3186 1 146.672000 19.669410 15.000000
3187 2 146.672000 20.448000 17.104598
3188 2 145.024000 21.941410 17.104598
3189 1 145.024000 22.720000 15.000000
3190 1 146.672000 24.213410 15.000000
3191 2 146.672000 24.992000 17.104598
3192 2 145.024000 26.485410 17.104598
3193 1 145.024000 27.264000 15.000000
3194 1 146.672000 28.757410 15.000000
3195 2 146.672000 29.536000 17.104598
3196 2 145.024000 31.029410 17.104598
3197 1 145.024000 31.808000 15.000000
3198 1 146.672000 33.301410 15.000000
3199 2 146.672000 34.080000 17.104598
3200 2 145.024000 35.573410 17.104598
3201 1 145.024000 36.352000 15.000000
3202 1 146.672000 37.845410 15.000000
3203 2 146.672000 38.624000 17.104598
3204 2 145.024000 40.117410 17.104598
3205 1 145.024000 40.896000 15.000000
3206 1 146.672000 42.389410 15.000000
3207 2 146.672000 43.168000 17.104598
3208 2 145.024000 44.661410 17.104598
3209 1 145.024000 45.440000 15.000000
3210 1 146.672000 46.933410 15.000000
3211 2 146.672000 47.712000 17.104598
3212 2 145.024000 49.205410 17.104598
3213 1 145.024000 49.984000 15.000000
3214 1 146.672000 51.477410 15.000000
3215 2 146.672000 52.256000 17.104598
3216 2 145.024000 53.749410 17.104598
3217 1 145.024000 54.528000 15.000000
3218 1 146.672000 56.021410 15.000000
3219 2 146.672000 56.800000 17.104598
3220 2 145.024000 58.293410 17.104598
3221 1 145.024000 59.072000 15.000000
3222 1 146.672000 60.565410 15.000000
3223 2 146.672000 61.344000 17.104598
3224 2 145.024000 62.837410 17.104598
3225 1 145.024000 63.616000 15.000000
3226 1 146.672000 65.109410 15.000000
3227 2 146.672000 65.888000 17.104598
3228 2 145.024000 67.381410 17.104598
3229 1 145.024000 68.160000 15.000000
3230 1 146.672000 69.653410 15.000000
3231 2 146.672000 70.432000 17.104598
3232 2 145.024000 71.925410 17.104598
3233 1 145.024000 72.704000 15.000000
3234 1 146.672000 74.197410 15.000000
3235 2 146.672000 74.976000 17.104598
3236 2 145.024000 76.469410 17.104598
3237 1 145.024000 77.248000 15.000000
3238 1 146.672000 78.741410 15.000000
3239 2 146.672000 79.520000 17.104598
3240 2 145.024000 81.013410 17.104598
3241 1 148.320000 0.000000 15.000000
3242 1 149.968000 1.493410 15.000000
3243 2 149.968000 2.272000 17.104598
3244 2 148.320000 3.765410 17.104598
3245 1 148.320000 4.544000 15.000000
3246 1 149.968000 6.037410 15.000000
3247 2 149.968000 6.816000 17.104598
3248 2 148.320000 8.309410 17.104598
3249 1 148.320000 9.088000 15.000000
3250 1 149.968000 10.581410 15.000000
3251 2 149.968000 11.360000 17.104598
3252 2 148.320000 12.853410 17.104598
3253 1 148.320000 13.632000 15.000000
3254 1 149.968000 15.125410 15.000000
3255 2 149.968000 15.904000 17.104598
3256 2 148.320000 17.397410 17.104598
3257 1 148.320000 18.176000 15.000000
3258 1 149.968000 19.669410 15.000000
3259 2 149.968000 20.448000 17.104598
3260 2 148.320000 21.941410 17.104598
3261 1 148.320000 22.720000 15.000000
3262 1 149.968000 24.213410 15.000000
3263 2 149.968000 24.992000 17.104598
3264 2 148.320000 26.485410 17.104598
3265 1 148.320000 27.264000 15.000000
3266 1 149.968000 28.757410 15.000000
3267 2 149.968000 29.536000 17.104598
3268 2 148.320000 31.029410 17.104598
3269 1 148.320000 31.808000 15.000000
3270 1 149.968000 33.301410 15.000000
3271 2 149.968000 34.080000 17.104598
3272 2 148.320000 35.573410 17.104598
3273 1 148.320000 36.352000 15.000000
3274 1 149.968000 37.845410 15.000000
3275 2 149.968000 38.624000 17.104598
3276 2 148.320000 40.117410 17.104598
3277 1 148.320000 40.896000 15.000000
3278 1 149.968000 42.389410 15.000000
3279 2 149.968000 43.168000 17.104598
3280 2 148.320000 44.661410 17.104598
3281 1 148.320000 45.440000 15.000000
3282 1 149.968000 46.933410 15.000000
3283 2 149.968000 47.712000 17.104598
3284 2 148.320000 49.205410 17.104598
3285 1 148.320000 49.984000 15.000000
3286 1 149.968000 51.477410 15.000000
3287 2 149.968000 52.256000 17.104598
3288 2 148.320000 53.749410 17.104598
3289 1 148.320000 54.528000 15.000000
3290 1 149.968000 56.021410 15.000000
3291 2 149.968000 56.800000 17.104598
3292 2 148.320000 58.293410 17.104598
3293 1 148.320000 59.072000 15.000000
3294 1 149.968000 60.565410 15.000000
3295 2 149.968000 61.344000 17.104598
3296 2 148.320000 62.837410 17.104598
3297 1 148.320000 63.616000 15.000000
3298 1 149.968000 65.109410 15.000000
3299 2 149.968000 65.888000 17.104598
3300 2 148.320000 67.381410 17.104598
3301 1 148.320000 68.160000 15.000000
3302 1 149.968000 69.653410 15.000000
3303 2 149.968000 70.432000 17.104598
3304 2 148.320000 71.925410 17.104598
3305 1 148.320000 72.704000 15.000000
3306 1 149.968000 74.197410 15.000000
3307 2 149.968000 74.976000 17.104598
3308 2 148.320000 76.469410 17.104598
3309 1 148.320000 77.248000 15.000000
3310 1 149.968000 78.741410 15.000000
3311 2 149.968000 79.520000 17.104598
3312 2 148.320000 81.013410 17.104598
3313 1 151.616000 0.000000 15.000000
3314 1 153.264000 1.493410 15.000000
3315 2 153.264000 2.272000 17.104598
3316 2 151.616000 3.765410 17.104598
3317 1 151.616000 4.544000 15.000000
3318 1 153.264000 6.037410 15.000000
3319 2 153.264000 6.816000 17.104598
3320 2 151.616000 8.309410 17.104598
3321 1 151.616000 9.088000 15.000000
3322 1 153.264000 10.581410 15.000000
3323 2 153.264000 11.360000 17.104598
3324 2 151.616000 12.853410 17.104598
3325 1 151.616000 13.632000 15.000000
3326 1 153.264000 15.125410 15.000000
3327 2 153.264000 15.904000 17.104598
3328 2 151.616000 17.397410 17.104598
3329 1 151.616000 18.176000 15.000000
3330 1 153.264000 19.669410 15.000000
3331 2 153.264000 20.448000 17.104598
3332 2 151.616000 21.941410 17.104598
3333 1 151.616000 22.720000 15.000000
3334 1 153.264000 24.213410 15.000000
3335 2 153.264000 24.992000 17.104598
3336 2 151.616000 26.485410 17.104598
3337 1 151.616000 27.264000 15.000000
3338 1 153.264000 28.757410 15.000000
3339 2 153.264000 29.536000 17.104598
3340 2 151.616000 31.029410 17.104598
3341 1 151.616000 31.808000 15.000000
3342 1 153.264000 33.301410 15.000000
3343 2 153.264000 34.080000 17.104598
3344 2 151.616000 35.573410 17.104598
3345 1 151.616000 36.352000 15.000000
3346 1 153.264000 37.845410 15.000000
3347 2 153.264000 38.624000 17.104598
3348 2 151.616000 40.117410 17.104598
3349 1 151.616000 40.896000 15.000000
3350 1 153.264000 42.389410 15.000000
3351 2 153.264000 43.168000 17.104598
3352 2 151.616000 44.661410 17.104598
3353 1 151.616000 45.440000 15.000000
3354 1 153.264000 46.933410 15.000000
3355 2 153.264000 47.712000 17.104598
3356 2 151.616000 49.205410 17.104598
3357 1 151.616000 49.984000 15.000000
3358 1 153.264000 51.477410 15.000000
3359 2 153.264000 52.256000 17.104598
3360 2 151.616000 53.749410 17.104598
3361 1 151.616000 54.528000 15.000000
3362 1 153.264000 56.021410 15.000000
3363 2 153.264000 56.800000 17.104598
3364 2 151.616000 58.293410 17.104598
3365 1 151.616000 59.072000 15.000000
3366 1 153.264000 60.565410 15.000000
3367 2 153.264000 61.344000 17.104598
3368 2 151.616000 62.837410 17.104598
3369 1 151.616000 63.616000 15.000000
3370 1 153.264000 65.109410 15.000000
3371 2 153.264000 65.888000 17.104598
3372 2 151.616000 67.381410 17.104598
3373 1 151.616000 68.160000 15.000000
3374 1 153.264000 69.653410 15.000000
3375 2 153.264000 70.432000 17.104598
3376 2 151.616000 71.925410 17.104598
3377 1 151.616000 72.704000 15.000000
3378 1 153.264000 74.197410 15.000000
3379 2 153.264000 74.976000 17.104598
3380 2 151.616000 76.469410 17.104598
3381 1 151.616000 77.248000 15.000000
3382 1 153.264000 78.741410 15.000000
3383 2 153.264000 79.520000 17.104598
3384 2 151.616000 81.013410 17.104598
3385 1 154.912000 0.000000 15.000000
3386 1 156.560000 1.493410 15.000000
3387 2 156.560000 2.272000 17.104598
3388 2 154.912000 3.765410 17.104598
3389 1 154.912000 4.544000 15.000000
3390 1 156.560000 6.037410 15.000000
3391 2 156.560000 6.816000 17.104598
3392 2 154.912000 8.309410 17.104598
3393 1 154.912000 9.088000 15.000000
3394 1 156.560000 10.581410 15.000000
3395 2 156.560000 11.360000 17.104598
3396 2 154.912000 12.853410 17.104598
3397 1 154.912000 13.632000 15.000000
3398 1 156.560000 15.125410 15.000000
3399 2 156.560000 15.904000 17.104598
3400 2 154.912000 17.397410 17.104598
3401 1 154.912000 18.176000 15.000000
3402 1 156.560000 19.669410 15.000000
3403 2 156.560000 20.448000 17.104598
3404 2 154.912000 21.941410 17.104598
3405 1 154.912000 22.720000 15.000000
3406 1 156.560000 24.213410 15.000000
3407 2 156.560000 24.992000 17.104598
3408 2 154.912000 26.485410 17.104598
3409 1 154.912000 27.264000 15.000000
3410 1 156.560000 28.757410 15.000000
3411 2 156.560000 29.536000 17.104598
3412 2 154.912000 31.029410 17.104598
3413 1 154.912000 31.808000 15.000000
3414 1 156.560000 33.301410 15.000000
3415 2 156.560000 34.080000 17.104598
3416 2 154.912000 35.573410 17.104598
3417 1 154.912000 36.352000 15.000000
3418 1 156.560000 37.845410 15.000000
3419 2 156.560000 38.624000 17.104598
3420 2 154.912000 40.117410 17.104598
3421 1 154.912000 40.896000 15.000000
3422 1 156.560000 42.389410 15.000000
3423 2 156.560000 43.168000 17.104598
3424 2 154.912000 44.661410 17.104598
3425 1 154.912000 45.440000 15.000000
3426 1 156.560000 46.933410 15.000000
3427 2 156.560000 47.712000 17.104598
3428 2 154.912000 49.205410 17.104598
3429 1 154.912000 49.984000 15.000000
3430 1 156.560000 51.477410 15.000000
3431 2 156.560000 52.256000 17.104598
3432 2 154.912000 53.749410 17.104598
3433 1 154.912000 54.528000 15.000000
3434 1 156.560000 56.021410 15.000000
3435 2 156.560000 56.800000 17.104598
3436 2 154.912000 58.293410 17.104598
3437 1 154.912000 59.072000 15.000000
3438 1 156.560000 60.565410 15.000000
3439 2 156.560000 61.344000 17.104598
3440 2 154.912000 62.837410 17.104598
3441 1 154.912000 63.616000 15.000000
3442 1 156.560000 65.109410 15.000000
3443 2 156.560000 65.888000 17.104598
3444 2 154.912000 67.381410 17.104598
3445 1 154.912000 68.160000 15.000000
3446 1 156.560000 69.653410 15.000000
3447 2 156.560000 70.432000 17.104598
3448 2 154.912000 71.925410 17.104598
3449 1 154.912000 72.704000 15.000000
3450 1 156.560000 74.197410 15.000000
3451 2 156.560000 74.976000 17.104598
3452 2 154.912000 76.469410 17.104598
3453 1 154.912000 77.248000 15.000000
3454 1 156.560000 78.741410 15.000000
3455 2 156.560000 79.520000 17.104598
3456 2 154.912000 81.013410 17.104598
3457 1 158.208000 0.000000 15.000000
3458 1 159.856000 1.493410 15.000000
3459 2 159.856000 2.272000 17.104598
3460 2 158.208000 3.765410 17.104598
3461 1 158.208000 4.544000 15.000000
3462 1 159.856000 6.037410 15.000000
3463 2 159.856000 6.816000 17.104598
3464 2 158.208000 8.309410 17.104598
3465 1 158.208000 9.088000 15.000000
3466 1 159.856000 10.581410 15.000000
3467 2 159.856000 11.360000 17.104598
3468 2 158.208000 12.853410 17.104598
3469 1 158.208000 13.632000 15.000000
3470 1 159.856000 15.125410 15.000000
3471 2 159.856000 15.904000 17.104598
3472 2 158.208000 17.397410 17.104598
3473 1 158.208000 18.176000 15.000000
3474 1 159.856000 19.669410 15.000000
3475 2 159.856000 20.448000 17.104598
3476 2 158.208000 21.941410 17.104598
3477 1 158.208000 22.720000 15.000000
3478 1 159.856000 24.213410 15.000000
3479 2 159.856000 24.992000 17.104598
3480 2 158.208000 26.485410 17.104598
3481 1 158.208000 27.264000 15.000000
3482 1 159.856000 28.757410 15.000000
3483 2 159.856000 29.536000 17.104598
3484 2 158.208000 31.029410 17.104598
3485 1 158.208000 31.808000 15.000000
3486 1 159.856000 33.301410 15.000000
3487 2 159.856000 34.080000 17.104598
3488 2 158.208000 35.573410 17.104598
3489 1 158.208000 36.352000 15.000000
3490 1 159.856000 37.845410 15.000000
3491 2 159.856000 38.624000 17.104598
3492 2 158.208000 40.117410 17.104598
3493 1 158.208000 40.896000 15.000000
3494 1 159.856000 42.389410 15.000000
3495 2 159.856000 43.168000 17.104598
3496 2 158.208000 44.661410 17.104598
3497 1 158.208000 45.440000 15.000000
3498 1 159.856000 46.933410 15.000000
3499 2 159.856000 47.712000 17.104598
3500 2 158.208000 49.205410 17.104598
3501 1 158.208000 49.984000 15.000000
3502 1 159.856000 51.477410 15.000000
3503 2 159.856000 52.256000 17.104598
3504 2 158.208000 53.749410 17.104598
3505 1 158.208000 54.528000 15.000000
3506 1 159.856000 56.021410 15.000000
3507 2 159.856000 56.800000 17.104598
3508 2 158.208000 58.293410 17.104598
3509 1 158.208000 59.072000 15.000000
3510 1 159.856000 60.565410 15.000000
3511 2 159.856000 61.344000 17.104598
3512 2 158.208000 62.837410 17.104598
3513 1 158.208000 63.616000 15.000000
3514 1 159.856000 65.109410 15.000000
3515 2 159.856000 65.888000 17.104598
3516 2 158.208000 67.381410 17.104598
3517 1 158.208000 68.160000 15.000000
3518 1 159.856000 69.653410 15.000000
3519 2 159.856000 70.432000 17.104598
3520 2 158.208000 71.925410 17.104598
3521 1 158.208000 72.704000 15.000000
3522 1 159.856000 74.197410 15.000000
3523 2 159.856000 74.976000 17.104598
3524 2 158.208000 76.469410 17.104598
3525 1 158.208000 77.248000 15.000000
3526 1 159.856000 78.741410 15.000000
3527 2 159.856000 79.520000 17.104598
3528 2 158.208000 81.013410 17.104598
3529 1 161.504000 0.000000 15.000000
3530 1 163.152000 1.493410 15.000000
3531 2 163.152000 2.272000 17.104598
3532 2 161.504000 3.765410 17.104598
3533 1 161.504000 4.544000 15.000000
3534 1 163.152000 6.037410 15.000000
3535 2 163.152000 6.816000 17.104598
3536 2 161.504000 8.309410 17.104598
3537 1 161.504000 9.088000 15.000000
3538 1 163.152000 10.581410 15.000000
3539 2 163.152000 11.360000 17.104598
3540 2 161.504000 12.853410 17.104598
3541 1 161.504000 13.632000 15.000000
3542 1 163.152000 15.125410 15.000000
3543 2 163.152000 15.904000 17.104598
3544 2 161.504000 17.397410 17.104598
3545 1 161.504000 18.176000 15.000000
3546 1 163.152000 19.669410 15.000000
3547 2 163.152000 20.448000 17.104598
3548 2 161.504000 21.941410 17.104598
3549 1 161.504000 22.720000 15.000000
3550 1 163.152000 24.213410 15.000000
3551 2 163.152000 24.992000 17.104598
3552 2 161.504000 26.485410 17.104598
3553 1 161.504000 27.264000 15.000000
3554 1 163.152000 28.757410 15.000000
3555 2 163.152000 29.536000 17.104598
3556 2 161.504000 31.029410 17.104598
3557 1 161.504000 31.808000 15.000000
3558 1 163.152000 33.301410 15.000000
3559 2 163.152000 34.080000 17.104598
3560 2 161.504000 35.573410 17.104598
3561 1 161.504000 36.352000 15.000000
3562 1 163.152000 37.845410 15.000000
3563 2 163.152000 38.624000 17.104598
3564 2 161.504000 40.117410 17.104598
3565 1 161.504000 40.896000 15.000000
3566 1 163.152000 42.389410 15.000000
3567 2 163.152000 43.168000 17.104598
3568 2 161.504000 44.661410 17.104598
3569 1 161.504000 45.440000 15.000000
3570 1 163.152000 46.933410 15.000000
3571 2 163.152000 47.712000 17.104598
3572 2 161.504000 49.205410 17.104598
3573 1 161.504000 49.984000 15.000000
3574 1 163.152000 51.477410 15.000000
3575 2 163.152000 52.256000 17.104598
3576 2 161.504000 53.749410 17.104598
3577 1 161.504000 54.528000 15.000000
3578 1 163.152000 56.021410 15.000000
3579 2 163.152000 56.800000 17.104598
3580 2 161.504000 58.293410 17.104598
3581 1 161.504000 59.072000 15.000000
3582 1 163.152000 60.565410 15.000000
3583 2 163.152000 61.344000 17.104598
3584 2 161.504000 62.837410 17.104598
3585 1 161.504000 63.616000 15.000000
3586 1 163.152000 65.109410 15.000000
3587 2 163.152000 65.888000 17.104598
3588 2 161.504000 67.381410 17.104598
3589 1 161.504000 68.160000 15.000000
3590 1 163.152000 69.653410 15.000000
3591 2 163.152000 70.432000 17.104598
3592 2 161.504000 71.925410 17.104598
3593 1 161.504000 72.704000 15.000000
3594 1 163.152000 74.197410 15.000000
3595 2 163.152000 74.976000 17.104598
3596 2 161.504000 76.469410 17.104598
3597 1 161.504000 77.248000 15.000000
3598 1 163.152000 78.741410 15.000000
3599 2 163.152000 79.520000 17.104598
3600 2 161.504000 81.013410 17.104598
3601 1 164.800000 0.000000 15.000000
3602 1 166.448000 1.493410 15.000000
3603 2 166.448000 2.272000 17.104598
3604 2 164.800000 3.765410 17.104598
3605 1 164.800000 4.544000 15.000000
3606 1 166.448000 6.037410 15.000000
3607 2 166.448000 6.816000 17.104598
3608 2 164.800000 8.309410 17.104598
3609 1 164.800000 9.088000 15.000000
3610 1 166.448000 10.581410 15.000000
3611 2 166.448000 11.360000 17.104598
3612 2 164.800000 12.853410 17.104598
3613 1 164.800000 13.632000 15.000000
3614 1 166.448000 15.125410 15.000000
3615 2 166.448000 15.904000 17.104598
3616 2 164.800000 17.397410 17.104598
3617 1 164.800000 18.176000 15.000000
3618 1 166.448000 19.669410 15.000000
3619 2 166.448000 20.448000 17.104598
3620 2 164.800000 21.941410 17.104598
3621 1 164.800000 22.720000 15.000000
3622 1 166.448000 24.213410 15.000000
3623 2 166.448000 24.992000 17.104598
3624 2 164.800000 26.485410 17.104598
3625 1 164.800000 27.264000 15.000000
3626 1 166.448000 28.757410 15.000000
3627 2 166.448000 29.536000 17.104598
3628 2 164.800000 31.029410 17.104598
3629 1 164.800000 31.808000 15.000000
3630 1 166.448000 33.301410 15.000000
3631 2 166.448000 34.080000 17.104598
3632 2 164.800000 35.573410 17.104598
3633 1 164.800000 36.352000 15.000000
3634 1 166.448000 37.845410 15.000000
3635 2 166.448000 38.624000 17.104598
3636 2 164.800000 40.117410 17.104598
3637 1 164.800000 40.896000 15.000000
3638 1 166.448000 42.389410 15.000000
3639 2 166.448000 43.168000 17.104598
3640 2 164.800000 44.661410 17.104598
3641 1 164.800000 45.440000 15.000000
3642 1 166.448000 46.933410 15.000000
3643 2 166.448000 47.712000 17.104598
3644 2 164.800000 49.205410 17.104598
3645 1 164.800000 49.984000 15.000000
3646 1 166.448000 51.477410 15.000000
3647 2 166.448000 52.256000 17.104598
3648 2 164.800000 53.749410 17.104598
3649 1 164.800000 54.528000 15.000000
3650 1 166.448000 56.021410 15.000000
3651 2 166.448000 56.800000 17.104598
3652 2 164.800000 58.293410 17.104598
3653 1 164.800000 59.072000 15.000000
3654 1 166.448000 60.565410 15.000000
3655 2 166.448000 61.344000 17.104598
3656 2 164.800000 62.837410 17.104598
3657 1 164.800000 63.616000 15.000000
3658 1 166.448000 65.109410 15.000000
3659 2 166.448000 65.888000 17.104598
3660 2 164.800000 67.381410 17.104598
3661 1 164.800000 68.160000 15.000000
3662 1 166.448000 69.653410 15.000000
3663 2 166.448000 70.432000 17.104598
3664 2 164.800000 71.925410 17.104598
3665 1 164.800000 72.704000 15.000000
3666 1 166.448000 74.197410 15.000000
3667 2 166.448000 74.976000 17.104598
3668 2 164.800000 76.469410 17.104598
3669 1 164.800000 77.248000 15.000000
3670 1 166.448000 78.741410 15.000000
3671 2 166.448000 79.520000 17.104598
3672 2 164.800000 81.013410 17.104598
3673 1 168.096000 0.000000 15.000000
3674 1 169.744000 1.493410 15.000000
3675 2 169.744000 2.272000 17.104598
3676 2 168.096000 3.765410 17.104598
3677 1 168.096000 4.544000 15.000000
3678 1 169.744000 6.037410 15.000000
3679 2 169.744000 6.816000 17.104598
3680 2 168.096000 8.309410 17.104598
3681 1 168.096000 9.088000 15.000000
3682 1 169.744000 10.581410 15.000000
3683 2 169.744000 11.360000 17.104598
3684 2 168.096000 12.853410 17.104598
3685 1 168.096000 13.632000 15.000000
3686 1 169.744000 15.125410 15.000000
3687 2 169.744000 15.904000 17.104598
3688 2 168.096000 17.397410 17.104598
3689 1 168.096000 18.176000 15.000000
3690 1 169.744000 19.669410 15.000000
3691 2 169.744000 20.448000 17.104598
3692 2 168.096000 21.941410 17.104598
3693 1 168.096000 22.720000 15.000000
3694 1 169.744000 24.213410 15.000000
3695 2 169.744000 24.992000 17.104598
3696 2 168.096000 26.485410 17.104598
3697 1 168.096000 27.264000 15.000000
3698 1 169.744000 28.757410 15.000000
3699 2 169.744000 29.536000 17.104598
3700 2 168.096000 31.029410 17.104598
3701 1 168.096000 31.808000 15.000000
3702 1 169.744000 33.301410 15.000000
3703 2 169.744000 34.080000 17.104598
3704 2 168.096000 35.573410 17.104598
3705 1 168.096000 36.352000 15.000000
3706 1 169.744000 37.845410 15.000000
3707 2 169.744000 38.624000 17.104598
3708 2 168.096000 40.117410 17.104598
3709 1 168.096000 40.896000 15.000000
3710 1 169.744000 42.389410 15.000000
3711 2 169.744000 43.168000 17.104598
3712 2 168.096000 44.661410 17.104598
3713 1 168.096000 45.440000 15.000000
3714 1 169.744000 46.933410 15.000000
3715 2 169.744000 47.712000 17.104598
3716 2 168.096000 49.205410 17.104598
3717 1 168.096000 49.984000 15.000000
3718 1 169.744000 51.477410 15.000000
3719 2 169.744000 52.256000 17.104598
3720 2 168.096000 53.749410 17.104598
3721 1 168.096000 54.528000 15.000000
3722 1 169.744000 56.021410 15.000000
3723 2 169.744000 56.800000 17.104598
3724 2 168.096000 58.293410 17.104598
3725 1 168.096000 59.072000 15.000000
3726 1 169.744000 60.565410 15.000000
3727 2 169.744000 61.344000 17.104598
3728 2 168.096000 62.837410 17.104598
3729 1 168.096000 63.616000 15.000000
3730 1 169.744000 65.109410 15.000000
3731 2 169.744000 65.888000 17.104598
3732 2 168.096000 67.381410 17.104598
3733 1 168.096000 68.160000 15.000000
3734 1 169.744000 69.653410 15.000000
3735 2 169.744000 70.432000 17.104598
3736 2 168.096000 71.925410 17.104598
3737 1 168.096000 72.704000 15.000000
3738 1 169.744000 74.197410 15.000000
3739 2 169.744000 74.976000 17.104598
3740 2 168.096000 76.469410 17.104598
3741 1 168.096000 77.248000 15.000000
3742 1 169.744000 78.741410 15.000000
3743 2 169.744000 79.520000 17.104598
3744 2 168.096000 81.013410 17.104598
3745 1 171.392000 0.000000 15.000000
3746 1 173.040000 1.493410 15.000000
3747 2 173.040000 2.272000 17.104598
3748 2 171.392000 3.765410 17.104598
3749 1 171.392000 4.544000 15.000000
3750 1 173.040000 6.037410 15.000000
3751 2 173.040000 6.816000 17.104598
3752 2 171.392000 8.309410 17.104598
3753 1 171.392000 9.088000 15.000000
3754 1 173.040000 10.581410 15.000000
3755 2 173.040000 11.360000 17.104598
3756 2 171.392000 12.853410 17.104598
3757 1 171.392000 13.632000 15.000000
3758 1 173.040000 15.125410 15.000000
3759 2 173.040000 15.904000 17.104598
3760 2 171.392000 17.397410 17.104598
3761 1 171.392000 18.176000 15.000000
3762 1 173.040000 19.669410 15.000000
3763 2 173.040000 20.448000 17.104598
3764 2 171.392000 21.941410 17.104598
3765 1 171.392000 22.720000 15.000000
3766 1 173.040000 24.213410 15.000000
3767 2 173.040000 24.992000 17.104598
3768 2 171.392000 26.485410 17.104598
3769 1 171.392000 27.264000 15.000000
3770 1 173.040000 28.757410 15.000000
3771 2 173.040000 29.536000 17.104598
3772 2 171.392000 31.029410 17.104598
3773 1 171.392000 31.808000 15.000000
3774 1 173.040000 33.301410 15.000000
3775 2 173.040000 34.080000 17.104598
3776 2 171.392000 35.573410 17.104598
3777 1 171.392000 36.352000 15.000000
3778 1 173.040000 37.845410 15.000000
3779 2 173.040000 38.624000 17.104598
3780 2 171.392000 40.117410 17.104598
3781 1 171.392000 40.896000 15.000000
3782 1 173.040000 42.389410 15.000000
3783 2 173.040000 43.168000 17.104598
3784 2 171.392000 44.661410 17.104598
3785 1 171.392000 45.440000 15.000000
3786 1 173.040000 46.933410 15.000000
3787 2 173.040000 47.712000 17.104598
3788 2 171.392000 49.205410 17.104598
3789 1 171.392000 49.984000 15.000000
3790 1 173.040000 51.477410 15.000000
3791 2 173.040000 52.256000 17.104598
3792 2 171.392000 53.749410 17.104598
3793 1 171.392000 54.528000 15.000000
3794 1 173.040000 56.021410 15.000000
3795 2 173.040000 56.800000 17.104598
3796 2 171.392000 58.293410 17.104598
3797 1 171.392000 59.072000 15.000000
3798 1 173.040000 60.565410 15.000000
3799 2 173.040000 61.344000 17.104598
3800 2 171.392000 62.837410 17.104598
3801 1 171.392000 63.616000 15.000000
3802 1 173.040000 65.109410 15.000000
3803 2 173.040000 65.888000 17.104598
3804 2 171.392000 67.381410 17.104598
3805 1 171.392000 68.160000 15.000000
3806 1 173.040000 69.653410 15.000000
3807 2 173.040000 70.432000 17.104598
3808 2 171.392000 71.925410 17.104598
3809 1 171.392000 72.704000 15.000000
3810 1 173.040000 74.197410 15.000000
3811 2 173.040000 74.976000 17.104598
3812 2 171.392000 76.469410 17.104598
3813 1 171.392000 77.248000 15.000000
3814 1 173.040000 78.741410 15.000000
3815 2 173.040000 79.520000 17.104598
3816 2 171.392000 81.013410 17.104598
3817 1 174.688000 0.000000 15.000000
3818 1 176.336000 1.493410 15.000000
3819 2 176.336000 2.272000 17.104598
3820 2 174.688000 3.765410 17.104598
3821 1 174.688000 4.544000 15.000000
3822 1 176.336000 6.037410 15.000000
3823 2 176.336000 6.816000 17.104598
3824 2 174.688000 8.309410 17.104598
3825 1 174.688000 9.088000 15.000000
3826 1 176.336000 10.581410 15.000000
3827 2 176.336000 11.360000 17.104598
3828 2 174.688000 12.853410 17.104598
3829 1 174.688000 13.632000 15.000000
3830 1 176.336000 15.125410 15.000000
3831 2 176.336000 15.904000 17.104598
3832 2 174.688000 17.397410 17.104598
3833 1 174.688000 18.176000 15.000000
3834 1 176.336000 19.669410 15.000000
3835 2 176.336000 20.448000 17.104598
3836 2 174.688000 21.941410 17.104598
3837 1 174.688000 22.720000 15.000000
3838 1 176.336000 24.213410 15.000000
3839 2 176.336000 24.992000 17.104598
3840 2 174.688000 26.485410 17.104598
3841 1 174.688000 27.264000 15.000000
3842 1 176.336000 28.757410 15.000000
3843 2 176.336000 29.536000 17.104598
3844 2 174.688000 31.029410 17.104598
3845 1 174.688000 31.808000 15.000000
3846 1 176.336000 33.301410 15.000000
3847 2 176.336000 34.080000 17.104598
3848 2 174.688000 35.573410 17.104598
3849 1 174.688000 36.352000 15.000000
3850 1 176.336000 37.845410 15.000000
3851 2 176.336000 38.624000 17.104598
3852 2 174.688000 40.117410 17.104598
3853 1 174.688000 40.896000 15.000000
3854 1 176.336000 42.389410 15.000000
3855 2 176.336000 43.168000 17.104598
3856 2 174.688000 44.661410 17.104598
3857 1 174.688000 45.440000 15.000000
3858 1 176.336000 46.933410 15.000000
3859 2 176.336000 47.712000 17.104598
3860 2 174.688000 49.205410 17.104598
3861 1 174.688000 49.984000 15.000000
3862 1 176.336000 51.477410 15.000000
3863 2 176.336000 52.256000 17.104598
3864 2 174.688000 53.749410 17.104598
3865 1 174.688000 54.528000 15.000000
3866 1 176.336000 56.021410 15.000000
3867 2 176.336000 56.800000 17.104598
3868 2 174.688000 58.293410 17.104598
3869 1 174.688000 59.072000 15.000000
3870 1 176.336000 60.565410 15.000000
3871 2 176.336000 61.344000 17.104598
3872 2 174.688000 62.837410 17.104598
3873 1 174.688000 63.616000 15.000000
3874 1 176.336000 65.109410 15.000000
3875 2 176.336000 65.888000 17.104598
3876 2 174.688000 67.381410 17.104598
3877 1 174.688000 68.160000 15.000000
3878 1 176.336000 69.653410 15.000000
3879 2 176.336000 70.432000 17.104598
3880 2 174.688000 71.925410 17.104598
3881 1 174.688000 72.704000 15.000000
3882 1 176.336000 74.197410 15.000000
3883 2 176.336000 74.976000 17.104598
3884 2 174.688000 76.469410 17.104598
3885 1 174.688000 77.248000 15.000000
3886 1 176.336000 78.741410 15.000000
3887 2 176.336000 79.520000 17.104598
3888 2 174.688000 81.013410 17.104598
3889 1 177.984000 0.000000 15.000000
3890 1 179.632000 1.493410 15.000000
3891 2 179.632000 2.272000 17.104598
3892 2 177.984000 3.765410 17.104598
3893 1 177.984000 4.544000 15.000000
3894 1 179.632000 6.037410 15.000000
3895 2 179.632000 6.816000 17.104598
3896 2 177.984000 8.309410 17.104598
3897 1 177.984000 9.088000 15.000000
3898 1 179.632000 10.581410 15.000000
3899 2 179.632000 11.360000 17.104598
3900 2 177.984000 12.853410 17.104598
3901 1 177.984000 13.632000 15.000000
3902 1 179.632000 15.125410 15.000000
3903 2 179.632000 15.904000 17.104598
3904 2 177.984000 17.397410 17.104598
3905 1 177.984000 18.176000 15.000000
3906 1 179.632000 19.669410 15.000000
3907 2 179.632000 20.448000 17.104598
3908 2 177.984000 21.941410 17.104598
3909 1 177.984000 22.720000 15.000000
3910 1 179.632000 24.213410 15.000000
3911 2 179.632000 24.992000 17.104598
3912 2 177.984000 26.485410 17.104598
3913 1 177.984000 27.264000 15.000000
3914 1 179.632000 28.757410 15.000000
3915 2 179.632000 29.536000 17.104598
3916 2 177.984000 31.029410 17.104598
3917 1 177.984000 31.808000 15.000000
3918 1 179.632000 33.301410 15.000000
3919 2 179.632000 34.080000 17.104598
3920 2 177.984000 35.573410 17.104598
3921 1 177.984000 36.352000 15.000000
3922 1 179.632000 37.845410 15.000000
3923 2 179.632000 38.624000 17.104598
3924 2 177.984000 40.117410 17.104598
3925 1 177.984000 40.896000 15.000000
3926 1 179.632000 42.389410 15.000000
3927 2 179.632000 43.168000 17.104598
3928 2 177.984000 44.661410 17.104598
3929 1 177.984000 45.440000 15.000000
3930 1 179.632000 46.933410 15.000000
3931 2 179.632000 47.712000 17.104598
3932 2 177.984000 49.205410 17.104598
3933 1 177.984000 49.984000 15.000000
3934 1 179.632000 51.477410 15.000000
3935 2 179.632000 52.256000 17.104598
3936 2 177.984000 53.749410 17.104598
3937 1 177.984000 54.528000 15.000000
3938 1 179.632000 56.021410 15.000000
3939 2 179.632000 56.800000 17.104598
3940 2 177.984000 58.293410 17.104598
3941 1 177.984000 59.072000 15.000000
3942 1 179.632000 60.565410 15.000000
3943 2 179.632000 61.344000 17.104598
3944 2 177.984000 62.837410 17.104598
3945 1 177.984000 63.616000 15.000000
3946 1 179.632000 65.109410 15.000000
3947 2 179.632000 65.888000 17.104598
3948 2 177.984000 67.381410 17.104598
3949 1 177.984000 68.160000 15.000000
3950 1 179.632000 69.653410 15.000000
3951 2 179.632000 70.432000 17.104598
3952 2 177.984000 71.925410 17.104598
3953 1 177.984000 72.704000 15.000000
3954 1 179.632000 74.197410 15.000000
3955 2 179.632000 74.976000 17.104598
3956 2 177.984000 76.469410 17.104598
3957 1 177.984000 77.248000 15.000000
3958 1 179.632000 78.741410 15.000000
3959 2 179.632000 79.520000 17.104598
3960 2 177.984000 81.013410 17.104598
3961 1 181.280000 0.000000 15.000000
3962 1 182.928000 1.493410 15.000000
3963 2 182.928000 2.272000 17.104598
3964 2 181.280000 3.765410 17.104598
3965 1 181.280000 4.544000 15.000000
3966 1 182.928000 6.037410 15.000000
3967 2 182.928000 6.816000 17.104598
3968 2 181.280000 8.309410 17.104598
3969 1 181.280000 9.088000 15.000000
3970 1 182.928000 10.581410 15.000000
3971 2 182.928000 11.360000 17.104598
3972 2 181.280000 12.853410 17.104598
3973 1 181.280000 13.632000 15.000000
3974 1 182.928000 15.125410 15.000000
3975 2 182.928000 15.904000 17.104598
3976 2 181.280000 17.397410 17.104598
3977 1 181.280000 18.176000 15.000000
3978 1 182.928000 19.669410 15.000000
3979 2 182.928000 20.448000 17.104598
3980 2 181.280000 21.941410 17.104598
3981 1 181.280000 22.720000 15.000000
3982 1 182.928000 24.213410 15.000000
3983 2 182.928000 24.992000 17.104598
3984 2 181.280000 26.485410 17.104598
3985 1 181.280000 27.264000 15.000000
3986 1 182.928000 28.757410 15.000000
3987 2 182.928000 29.536000 17.104598
3988 2 181.280000 31.029410 17.104598
3989 1 181.280000 31.808000 15.000000
3990 1 182.928000 33.301410 15.000000
3991 2 182.928000 34.080000 17.104598
3992 2 181.280000 35.573410 17.104598
3993 1 181.280000 36.352000 15.000000
3994 1 182.928000 37.845410 15.000000
3995 2 182.928000 38.624000 17.104598
3996 2 181.280000 40.117410 17.104598
3997 1 181.280000 40.896000 15.000000
3998 1 182.928000 42.389410 15.000000
3999 2 182.928000 43.168000 17.104598
4000 2 181.280000 44.661410 17.104598
4001 1 181.280000 45.440000 15.000000
4002 1 182.928000 46.933410 15.000000
4003 2 182.928000 47.712000 17.104598
4004 2 181.280000 49.205410 17.104598
4005 1 181.280000 49.984000 15.000000
4006 1 182.928000 51.477410 15.000000
4007 2 182.928000 52.256000 17.104598
4008 2 181.280000 53.749410 17.104598
4009 1 181.280000 54.528000 15.000000
4010 1 182.928000 56.021410 15.000000
4011 2 182.928000 56.800000 17.104598
4012 2 181.280000 58.293410 17.104598
4013 1 181.280000 59.072000 15.000000
4014 1 182.928000 60.565410 15.000000
4015 2 182.928000 61.344000 17.104598
4016 2 181.280000 62.837410 17.104598
4017 1 181.280000 63.616000 15.000000
4018 1 182.928000 65.109410 15.000000
4019 2 182.928000 65.888000 17.104598
4020 2 181.280000 67.381410 17.104598
4021 1 181.280000 68.160000 15.000000
4022 1 182.928000 69.653410 15.000000
4023 2 182.928000 70.432000 17.104598
4024 2 181.280000 71.925410 17.104598
4025 1 181.280000 72.704000 15.000000
4026 1 182.928000 74.197410 15.000000
4027 2 182.928000 74.976000 17.104598
4028 2 181.280000 76.469410 17.104598
4029 1 181.280000 77.248000 15.000000
4030 1 182.928000 78.741410 15.000000
4031 2 182.928000 79.520000 17.104598
4032 2 181.280000 81.013410 17.104598
4033 1 184.576000 0.000000 15.000000
4034 1 186.224000 1.493410 15.000000
4035 2 186.224000 2.272000 17.104598
4036 2 184.576000 3.765410 17.104598
4037 1 184.576000 4.544000 15.000000
4038 1 186.224000 6.037410 15.000000
4039 2 186.224000 6.816000 17.104598
4040 2 184.576000 8.309410 17.104598
4041 1 184.576000 9.088000 15.000000
4042 1 186.224000 10.581410 15.000000
4043 2 186.224000 11.360000 17.104598
4044 2 184.576000 12.853410 17.104598
4045 1 184.576000 13.632000 15.000000
4046 1 186.224000 15.125410 15.000000
4047 2 186.224000 15.904000 17.104598
4048 2 184.576000 17.397410 17.104598
4049 1 184.576000 18.176000 15.000000
4050 1 186.224000 19.669410 15.000000
4051 2 186.224000 20.448000 17.104598
4052 2 184.576000 21.941410 17.104598
4053 1 184.576000 22.720000 15.000000
4054 1 186.224000 24.213410 15.000000
4055 2 186.224000 24.992000 17.104598
4056 2 184.576000 26.485410 17.104598
4057 1 184.576000 27.264000 15.000000
4058 1 186.224000 28.757410 15.000000
4059 2 186.224000 29.536000 17.104598
4060 2 184.576000 31.029410 17.104598
4061 1 184.576000 31.808000 15.000000
4062 1 186.224000 33.301410 15.000000
4063 2 186.224000 34.080000 17.104598
4064 2 184.576000 35.573410 17.104598
4065 1 184.576000 36.352000 15.000000
4066 1 186.224000 37.845410 15.000000
4067 2 186.224000 38.624000 17.104598
4068 2 184.576000 40.117410 17.104598
4069 1 184.576000 40.896000 15.000000
4070 1 186.224000 42.389410 15.000000
4071 2 186.224000 43.168000 17.104598
4072 2 184.576000 44.661410 17.104598
4073 1 184.576000 45.440000 15.000000
4074 1 186.224000 46.933410 15.000000
4075 2 186.224000 47.712000 17.104598
4076 2 184.576000 49.205410 17.104598
4077 1 184.576000 49.984000 15.000000
4078 1 186.224000 51.477410 15.000000
4079 2 186.224000 52.256000 17.104598
4080 2 184.576000 53.749410 17.104598
4081 1 184.576000 54.528000 15.000000
4082 1 186.224000 56.021410 15.000000
4083 2 186.224000 56.800000 17.104598
4084 2 184.576000 58.293410 17.104598
4085 1 184.576000 59.072000 15.000000
4086 1 186.224000 60.565410 15.000000
4087 2 186.224000 61.344000 17.104598
4088 2 184.576000 62.837410 17.104598
4089 1 184.576000 63.616000 15.000000
4090 1 186.224000 65.109410 15.000000
4091 2 186.224000 65.888000 17.104598
4092 2 184.576000 67.381410 17.104598
4093 1 184.576000 68.160000 15.000000
4094 1 186.224000 69.653410 15.000000
4095 2 186.224000 70.432000 17.104598
4096 2 184.576000 71.925410 17.104598
4097 1 184.576000 72.704000 15.000000
4098 1 186.224000 74.197410 15.000000
4099 2 186.224000 74.976000 17.104598
4100 2 184.576000 76.469410 17.104598
4101 1 184.576000 77.248000 15.000000
4102 1 186.224000 78.741410 15.000000
4103 2 186.224000 79.520000 17.104598
4104 2 184.576000 81.013410 17.104598
4105 1 187.872000 0.000000 15.000000
4106 1 189.520000 1.493410 15.000000
4107 2 189.520000 2.272000 17.104598
4108 2 187.872000 3.765410 17.104598
4109 1 187.872000 4.544000 15.000000
4110 1 189.520000 6.037410 15.000000
4111 2 189.520000 6.816000 17.104598
4112 2 187.872000 8.309410 17.104598
4113 1 187.872000 9.088000 15.000000
4114 1 189.520000 10.581410 15.000000
4115 2 189.520000 11.360000 17.104598
4116 2 187.872000 12.853410 17.104598
4117 1 187.872000 13.632000 15.000000
4118 1 189.520000 15.125410 15.000000
4119 2 189.520000 15.904000 17.104598
4120 2 187.872000 17.397410 17.104598
4121 1 187.872000 18.176000 15.000000
4122 1 189.520000 19.669410 15.000000
4123 2 189.520000 20.448000 17.104598
4124 2 187.872000 21.941410 17.104598
4125 1 187.872000 22.720000 15.000000
4126 1 189.520000 24.213410 15.000000
4127 2 189.520000 24.992000 17.104598
4128 2 187.872000 26.485410 17.104598
4129 1 187.872000 27.264000 15.000000
4130 1 189.520000 28.757410 15.000000
4131 2 189.520000 29.536000 17.104598
4132 2 187.872000 31.029410 17.104598
4133 1 187.872000 31.808000 15.000000
4134 1 189.520000 33.301410 15.000000
4135 2 189.520000 34.080000 17.104598
4136 2 187.872000 35.573410 17.104598
4137 1 187.872000 36.352000 15.000000
4138 1 189.520000 37.845410 15.000000
4139 2 189.520000 38.624000 17.104598
4140 2 187.872000 40.117410 17.104598
4141 1 187.872000 40.896000 15.000000
4142 1 189.520000 42.389410 15.000000
4143 2 189.520000 43.168000 17.104598
4144 2 187.872000 44.661410 17.104598
4145 1 187.872000 45.440000 15.000000
4146 1 189.520000 46.933410 15.000000
4147 2 189.520000 47.712000 17.104598
4148 2 187.872000 49.205410 17.104598
4149 1 187.872000 49.984000 15.000000
4150 1 189.520000 51.477410 15.000000
4151 2 189.520000 52.256000 17.104598
4152 2 187.872000 53.749410 17.104598
4153 1 187.872000 54.528000 15.000000
4154 1 189.520000 56.021410 15.000000
4155 2 189.520000 56.800000 17.104598
4156 2 187.872000 58.293410 17.104598
4157 1 187.872000 59.072000 15.000000
4158 1 189.520000 60.565410 15.000000
4159 2 189.520000 61.344000 17.104598
4160 2 187.872000 62.837410 17.104598
4161 1 187.872000 63.616000 15.000000
4162 1 189.520000 65.109410 15.000000
4163 2 189.520000 65.888000 17.104598
4164 2 187.872000 67.381410 17.104598
4165 1 187.872000 68.160000 15.000000
4166 1 189.520000 69.653410 15.000000
4167 2 189.520000 70.432000 17.104598
4168 2 187.872000 71.925410 17.104598
4169 1 187.872000 72.704000 15.000000
4170 1 189.520000 74.197410 15.000000
4171 2 189.520000 74.976000 17.104598
4172 2 187.872000 76.469410 17.104598
4173 1 187.872000 77.248000 15.000000
4174 1 189.520000 78.741410 15.000000
4175 2 189.520000 79.520000 17.104598
4176 2 187.872000 81.013410 17.104598
4177 1 191.168000 0.000000 15.000000
4178 1 192.816000 1.493410 15.000000
4179 2 192.816000 2.272000 17.104598
4180 2 191.168000 3.765410 17.104598
4181 1 191.168000 4.544000 15.000000
4182 1 192.816000 6.037410 15.000000
4183 2 192.816000 6.816000 17.104598
4184 2 191.168000 8.309410 17.104598
4185 1 191.168000 9.088000 15.000000
4186 1 192.816000 10.581410 15.000000
4187 2 192.816000 11.360000 17.104598
4188 2 191.168000 12.853410 17.104598
4189 1 191.168000 13.632000 15.000000
4190 1 192.816000 15.125410 15.000000
4191 2 192.816000 15.904000 17.104598
4192 2 191.168000 17.397410 17.104598
4193 1 191.168000 18.176000 15.000000
4194 1 192.816000 19.669410 15.000000
4195 2 192.816000 20.448000 17.104598
4196 2 191.168000 21.941410 17.104598
4197 1 191.168000 22.720000 15.000000
4198 1 192.816000 24.213410 15.000000
4199 2 192.816000 24.992000 17.104598
4200 2 191.168000 26.485410 17.104598
4201 1 191.168000 27.264000 15.000000
4202 1 192.816000 28.757410 15.000000
4203 2 192.816000 29.536000 17.104598
4204 2 191.168000 31.029410 17.104598
4205 1 191.168000 31.808000 15.000000
4206 1 192.816000 33.301410 15.000000
4207 2 192.816000 34.080000 17.104598
4208 2 191.168000 35.573410 17.104598
4209 1 191.168000 36.352000 15.000000
4210 1 192.816000 37.845410 15.000000
4211 2 192.816000 38.624000 17.104598
4212 2 191.168000 40.117410 17.104598
4213 1 191.168000 40.896000 15.000000
4214 1 192.816000 42.389410 15.000000
4215 2 192.816000 43.168000 17.104598
4216 2 191.168000 44.661410 17.104598
4217 1 191.168000 45.440000 15.000000
4218 1 192.816000 46.933410 15.000000
4219 2 192.816000 47.712000 17.104598
4220 2 191.168000 49.205410 17.104598
4221 1 191.168000 49.984000 15.000000
4222 1 192.816000 51.477410 15.000000
4223 2 192.816000 52.256000 17.104598
4224 2 191.168000 53.749410 17.104598
4225 1 191.168000 54.528000 15.000000
4226 1 192.816000 56.021410 15.000000
4227 2 192.816000 56.800000 17.104598
4228 2 191.168000 58.293410 17.104598
4229 1 191.168000 59.072000 15.000000
4230 1 192.816000 60.565410 15.000000
4231 2 192.816000 61.344000 17.104598
4232 2 191.168000 62.837410 17.104598
4233 1 191.168000 63.616000 15.000000
4234 1 192.816000 65.109410 15.000000
4235 2 192.816000 65.888000 17.104598
4236 2 191.168000 67.381410 17.104598
4237 1 191.168000 68.160000 15.000000
4238 1 192.816000 69.653410 15.000000
4239 2 192.816000 70.432000 17.104598
4240 2 191.168000 71.925410 17.104598
4241 1 191.168000 72.704000 15.000000
4242 1 192.816000 74.197410 15.000000
4243 2 192.816000 74.976000 17.104598
4244 2 191.168000 76.469410 17.104598
4245 1 191.168000 77.248000 15.000000
4246 1 192.816000 78.741410 15.000000
4247 2 192.816000 79.520000 17.104598
4248 2 191.168000 81.013410 17.104598
4249 1 194.464000 0.000000 15.000000
4250 1 196.112000 1.493410 15.000000
4251 2 196.112000 2.272000 17.104598
4252 2 194.464000 3.765410 17.104598
4253 1 194.464000 4.544000 15.000000
4254 1 196.112000 6.037410 15.000000
4255 2 196.112000 6.816000 17.104598
4256 2 194.464000 8.309410 17.104598
4257 1 194.464000 9.088000 15.000000
4258 1 196.112000 10.581410 15.000000
4259 2 196.112000 11.360000 17.104598
4260 2 194.464000 12.853410 17.104598
4261 1 194.464000 13.632000 15.000000
4262 1 196.112000 15.125410 15.000000
4263 2 196.112000 15.904000 17.104598
4264 2 194.464000 17.397410 17.104598
4265 1 194.464000 18.176000 15.000000
4266 1 196.112000 19.669410 15.000000
4267 2 196.112000 20.448000 17.104598
4268 2 194.464000 21.941410 17.104598
4269 1 194.464000 22.720000 15.000000
4270 1 196.112000 24.213410 15.000000
4271 2 196.112000 24.992000 17.104598
4272 2 194.464000 26.485410 17.104598
4273 1 194.464000 27.264000 15.000000
4274 1 196.112000 28.757410 15.000000
4275 2 196.112000 29.536000 17.104598
4276 2 194.464000 31.029410 17.104598
4277 1 194.464000 31.808000 15.000000
4278 1 196.112000 33.301410 15.000000
4279 2 196.112000 34.080000 17.104598
4280 2 194.464000 35.573410 17.104598
4281 1 194.464000 36.352000 15.000000
4282 1 196.112000 37.845410 15.000000
4283 2 196.112000 38.624000 17.104598
4284 2 194.464000 40.117410 17.104598
4285 1 194.464000 40.896000 15.000000
4286 1 196.112000 42.389410 15.000000
4287 2 196.112000 43.168000 17.104598
4288 2 194.464000 44.661410 17.104598
4289 1 194.464000 45.440000 15.000000
4290 1 196.112000 46.933410 15.000000
4291 2 196.112000 47.712000 17.104598
4292 2 194.464000 49.205410 17.104598
4293 1 194.464000 49.984000 15.000000
4294 1 196.112000 51.477410 15.000000
4295 2 196.112000 52.256000 17.104598
4296 2 194.464000 53.749410 17.104598
4297 1 194.464000 54.528000 15.000000
4298 1 196.112000 56.021410 15.000000
4299 2 196.112000 56.800000 17.104598
4300 2 194.464000 58.293410 17.104598
4301 1 194.464000 59.072000 15.000000
4302 1 196.112000 60.565410 15.000000
4303 2 196.112000 61.344000 17.104598
4304 2 194.464000 62.837410 17.104598
4305 1 194.464000 63.616000 15.000000
4306 1 196.112000 65.109410 15.000000
4307 2 196.112000 65.888000 17.104598
4308 2 194.464000 67.381410 17.104598
4309 1 194.464000 68.160000 15.000000
4310 1 196.112000 69.653410 15.000000
4311 2 196.112000 70.432000 17.104598
4312 2 194.464000 71.925410 17.104598
4313 1 194.464000 72.704000 15.000000
4314 1 196.112000 74.197410 15.000000
4315 2 196.112000 74.976000 17.104598
4316 2 194.464000 76.469410 17.104598
4317 1 194.464000 77.248000 15.000000
4318 1 196.112000 78.741410 15.000000
4319 2 196.112000 79.520000 17.104598
4320 2 194.464000 81.013410 17.104598
4321 1 197.760000 0.000000 15.000000
4322 1 199.408000 1.493410 15.000000
4323 2 199.408000 2.272000 17.104598
4324 2 197.760000 3.765410 17.104598
4325 1 197.760000 4.544000 15.000000
4326 1 199.408000 6.037410 15.000000
4327 2 199.408000 6.816000 17.104598
4328 2 197.760000 8.309410 17.104598
4329 1 197.760000 9.088000 15.000000
4330 1 199.408000 10.581410 15.000000
4331 2 199.408000 11.360000 17.104598
4332 2 197.760000 12.853410 17.104598
4333 1 197.760000 13.632000 15.000000
4334 1 199.408000 15.125410 15.000000
4335 2 199.408000 15.904000 17.104598
4336 2 197.760000 17.397410 17.104598
4337 1 197.760000 18.176000 15.000000
4338 1 199.408000 19.669410 15.000000
4339 2 199.408000 20.448000 17.104598
4340 2 197.760000 21.941410 17.104598
4341 1 197.760000 22.720000 15.000000
4342 1 199.408000 24.213410 15.000000
4343 2 199.408000 24.992000 17.104598
4344 2 197.760000 26.485410 17.104598
4345 1 197.760000 27.264000 15.000000
4346 1 199.408000 28.757410 15.000000
4347 2 199.408000 29.536000 17.104598
4348 2 197.760000 31.029410 17.104598
4349 1 197.760000 31.808000 15.000000
4350 1 199.408000 33.301410 15.000000
4351 2 199.408000 34.080000 17.104598
4352 2 197.760000 35.573410 17.104598
4353 1 197.760000 36.352000 15.000000
4354 1 199.408000 37.845410 15.000000
4355 2 199.408000 38.624000 17.104598
4356 2 197.760000 40.117410 17.104598
4357 1 197.760000 40.896000 15.000000
4358 1 199.408000 42.389410 15.000000
4359 2 199.408000 43.168000 17.104598
4360 2 197.760000 44.661410 17.104598
4361 1 197.760000 45.440000 15.000000
4362 1 199.408000 46.933410 15.000000
4363 2 199.408000 47.712000 17.104598
4364 2 197.760000 49.205410 17.104598
4365 1 197.760000 49.984000 15.000000
4366 1 199.408000 51.477410 15.000000
4367 2 199.408000 52.256000 17.104598
4368 2 197.760000 53.749410 17.104598
4369 1 197.760000 54.528000 15.000000
4370 1 199.408000 56.021410 15.000000
4371 2 199.408000 56.800000 17.104598
4372 2 197.760000 58.293410 17.104598
4373 1 197.760000 59.072000 15.000000
4374 1 199.408000 60.565410 15.000000
4375 2 199.408000 61.344000 17.104598
4376 2 197.760000 62.837410 17.104598
4377 1 197.760000 63.616000 15.000000
4378 1 199.408000 65.109410 15.000000
4379 2 199.408000 65.888000 17.104598
4380 2 197.760000 67.381410 17.104598
4381 1 197.760000 68.160000 15.000000
4382 1 199.408000 69.653410 15.000000
4383 2 199.408000 70.432000 17.104598
4384 2 197.760000 71.925410 17.104598
4385 1 197.760000 72.704000 15.000000
4386 1 199.408000 74.197410 15.000000
4387 2 199.408000 74.976000 17.104598
4388 2 197.760000 76.469410 17.104598
4389 1 197.760000 77.248000 15.000000
4390 1 199.408000 78.741410 15.000000
4391 2 199.408000 79.520000 17.104598
4392 2 197.760000 81.013410 17.104598
4393 1 201.056000 0.000000 15.000000
4394 1 202.704000 1.493410 15.000000
4395 2 202.704000 2.272000 17.104598
4396 2 201.056000 3.765410 17.104598
4397 1 201.056000 4.544000 15.000000
4398 1 202.704000 6.037410 15.000000
4399 2 202.704000 6.816000 17.104598
4400 2 201.056000 8.309410 17.104598
4401 1 201.056000 9.088000 15.000000
4402 1 202.704000 10.581410 15.000000
4403 2 202.704000 11.360000 17.104598
4404 2 201.056000 12.853410 17.104598
4405 1 201.056000 13.632000 15.000000
4406 1 202.704000 15.125410 15.000000
4407 2 202.704000 15.904000 17.104598
4408 2 201.056000 17.397410 17.104598
4409 1 201.056000 18.176000 15.000000
4410 1 202.704000 19.669410 15.000000
4411 2 202.704000 20.448000 17.104598
4412 2 201.056000 21.941410 17.104598
4413 1 201.056000 22.720000 15.000000
4414 1 202.704000 24.213410 15.000000
4415 2 202.704000 24.992000 17.104598
4416 2 201.056000 26.485410 17.104598
4417 1 201.056000 27.264000 15.000000
4418 1 202.704000 28.757410 15.000000
4419 2 202.704000 29.536000 17.104598
4420 2 201.056000 31.029410 17.104598
4421 1 201.056000 31.808000 15.000000
4422 1 202.704000 33.301410 15.000000
4423 2 202.704000 34.080000 17.104598
4424 2 201.056000 35.573410 17.104598
4425 1 201.056000 36.352000 15.000000
4426 1 202.704000 37.845410 15.000000
4427 2 202.704000 38.624000 17.104598
4428 2 201.056000 40.117410 17.104598
4429 1 201.056000 40.896000 15.000000
4430 1 202.704000 42.389410 15.000000
4431 2 202.704000 43.168000 17.104598
4432 2 201.056000 44.661410 17.104598
4433 1 201.056000 45.440000 15.000000
4434 1 202.704000 46.933410 15.000000
4435 2 202.704000 47.712000 17.104598
4436 2 201.056000 49.205410 17.104598
4437 1 201.056000 49.984000 15.000000
4438 1 202.704000 51.477410 15.000000
4439 2 202.704000 52.256000 17.104598
4440 2 201.056000 53.749410 17.104598
4441 1 201.056000 54.528000 15.000000
4442 1 202.704000 56.021410 15.000000
4443 2 202.704000 56.800000 17.104598
4444 2 201.056000 58.293410 17.104598
4445 1 201.056000 59.072000 15.000000
4446 1 202.704000 60.565410 15.000000
4447 2 202.704000 61.344000 17.104598
4448 2 201.056000 62.837410 17.104598
4449 1 201.056000 63.616000 15.000000
4450 1 202.704000 65.109410 15.000000
4451 2 202.704000 65.888000 17.104598
4452 2 201.056000 67.381410 17.104598
4453 1 201.056000 68.160000 15.000000
4454 1 202.704000 69.653410 15.000000
4455 2 202.704000 70.432000 17.104598
4456 2 201.056000 71.925410 17.104598
4457 1 201.056000 72.704000 15.000000
4458 1 202.704000 74.197410 15.000000
4459 2 202.704000 74.976000 17.104598
4460 2 201.056000 76.469410 17.104598
4461 1 201.056000 77.248000 15.000000
4462 1 202.704000 78.741410 15.000000
4463 2 202.704000 79.520000 17.104598
4464 2 201.056000 81.013410 17.104598
4465 1 204.352000 0.000000 15.000000
4466 1 206.000000 1.493410 15.000000
4467 2 206.000000 2.272000 17.104598
4468 2 204.352000 3.765410 17.104598
4469 1 204.352000 4.544000 15.000000
4470 1 206.000000 6.037410 15.000000
4471 2 206.000000 6.816000 17.104598
4472 2 204.352000 8.309410 17.104598
4473 1 204.352000 9.088000 15.000000
4474 1 206.000000 10.581410 15.000000
4475 2 206.000000 11.360000 17.104598
4476 2 204.352000 12.853410 17.104598
4477 1 204.352000 13.632000 15.000000
4478 1 206.000000 15.125410 15.000000
4479 2 206.000000 15.904000 17.104598
4480 2 204.352000 17.397410 17.104598
4481 1 204.352000 18.176000 15.000000
4482 1 206.000000 19.669410 15.000000
4483 2 206.000000 20.448000 17.104598
4484 2 204.352000 21.941410 17.104598
4485 1 204.352000 22.720000 15.000000
4486 1 206.000000 24.213410 15.000000
4487 2 206.000000 24.992000 17.104598
4488 2 204.352000 26.485410 17.104598
4489 1 204.352000 27.264000 15.000000
4490 1 206.000000 28.757410 15.000000
4491 2 206.000000 29.536000 17.104598
4492 2 204.352000 31.029410 17.104598
4493 1 204.352000 31.808000 15.000000
4494 1 206.000000 33.301410 15.000000
4495 2 206.000000 34.080000 17.104598
4496 2 204.352000 35.573410 17.104598
4497 1 204.352000 36.352000 15.000000
4498 1 206.000000 37.845410 15.000000
4499 2 206.000000 38.624000 17.104598
4500 2 204.352000 40.117410 17.104598
4501 1 204.352000 40.896000 15.000000
4502 1 206.000000 42.389410 15.000000
4503 2 206.000000 43.168000 17.104598
4504 2 204.352000 44.661410 17.104598
4505 1 204.352000 45.440000 15.000000
4506 1 206.000000 46.933410 15.000000
4507 2 206.000000 47.712000 17.104598
4508 2 204.352000 49.205410 17.104598
4509 1 204.352000 49.984000 15.000000
4510 1 206.000000 51.477410 15.000000
4511 2 206.000000 52.256000 17.104598
4512 2 204.352000 53.749410 17.104598
4513 1 204.352000 54.528000 15.000000
4514 1 206.000000 56.021410 15.000000
4515 2 206.000000 56.800000 17.104598
4516 2 204.352000 58.293410 17.104598
4517 1 204.352000 59.072000 15.000000
4518 1 206.000000 60.565410 15.000000
4519 2 206.000000 61.344000 17.104598
4520 2 204.352000 62.837410 17.104598
4521 1 204.352000 63.616000 15.000000
4522 1 206.000000 65.109410 15.000000
4523 2 206.000000 65.888000 17.104598
4524 2 204.352000 67.381410 17.104598
4525 1 204.352000 68.160000 15.000000
4526 1 206.000000 69.653410 15.000000
4527 2 206.000000 70.432000 17.104598
4528 2 204.352000 71.925410 17.104598
4529 1 204.352000 72.704000 15.000000
4530 1 206.000000 74.197410 15.000000
4531 2 206.000000 74.976000 17.104598
4532 2 204.352000 76.469410 17.104598
4533 1 204.352000 77.248000 15.000000
4534 1 206.000000 78.741410 15.000000
4535 2 206.000000 79.520000 17.104598
4536 2 204.352000 81.013410 17.104598
4537 1 207.648000 0.000000 15.000000
4538 1 209.296000 1.493410 15.000000
4539 2 209.296000 2.272000 17.104598
4540 2 207.648000 3.765410 17.104598
4541 1 207.648000 4.544000 15.000000
4542 1 209.296000 6.037410 15.000000
4543 2 209.296000 6.816000 17.104598
4544 2 207.648000 8.309410 17.104598
4545 1 207.648000 9.088000 15.000000
4546 1 209.296000 10.581410 15.000000
4547 2 209.296000 11.360000 17.104598
4548 2 207.648000 12.853410 17.104598
4549 1 207.648000 13.632000 15.000000
4550 1 209.296000 15.125410 15.000000
4551 2 209.296000 15.904000 17.104598
4552 2 207.648000 17.397410 17.104598
4553 1 207.648000 18.176000 15.000000
4554 1 209.296000 19.669410 15.000000
4555 2 209.296000 20.448000 17.104598
4556 2 207.648000 21.941410 17.104598
4557 1 207.648000 22.720000 15.000000
4558 1 209.296000 24.213410 15.000000
4559 2 209.296000 24.992000 17.104598
4560 2 207.648000 26.485410 17.104598
4561 1 207.648000 27.264000 15.000000
4562 1 209.296000 28.757410 15.000000
4563 2 209.296000 29.536000 17.104598
4564 2 207.648000 31.029410 17.104598
4565 1 207.648000 31.808000 15.000000
4566 1 209.296000 33.301410 15.000000
4567 2 209.296000 34.080000 17.104598
4568 2 207.648000 35.573410 17.104598
4569 1 207.648000 36.352000 15.000000
4570 1 209.296000 37.845410 15.000000
4571 2 209.296000 38.624000 17.104598
4572 2 207.648000 40.117410 17.104598
4573 1 207.648000 40.896000 15.000000
4574 1 209.296000 42.389410 15.000000
4575 2 209.296000 43.168000 17.104598
4576 2 207.648000 44.661410 17.104598
4577 1 207.648000 45.440000 15.000000
4578 1 209.296000 46.933410 15.000000
4579 2 209.296000 47.712000 17.104598
4580 2 207.648000 49.205410 17.104598
4581 1 207.648000 49.984000 15.000000
4582 1 209.296000 51.477410 15.000000
4583 2 209.296000 52.256000 17.104598
4584 2 207.648000 53.749410 17.104598
4585 1 207.648000 54.528000 15.000000
4586 1 209.296000 56.021410 15.000000
4587 2 209.296000 56.800000 17.104598
4588 2 207.648000 58.293410 17.104598
4589 1 207.648000 59.072000 15.000000
4590 1 209.296000 60.565410 15.000000
4591 2 209.296000 61.344000 17.104598
4592 2 207.648000 62.837410 17.104598
4593 1 207.648000 63.616000 15.000000
4594 1 209.296000 65.109410 15.000000
4595 2 209.296000 65.888000 17.104598
4596 2 207.648000 67.381410 17.104598
4597 1 207.648000 68.160000 15.000000
4598 1 209.296000 69.653410 15.000000
4599 2 209.296000 70.432000 17.104598
4600 2 207.648000 71.925410 17.104598
4601 1 207.648000 72.704000 15.000000
4602 1 209.296000 74.197410 15.000000
4603 2 209.296000 74.976000 17.104598
4604 2 207.648000 76.469410 17.104598
4605 1 207.648000 77.248000 15.000000
4606 1 209.296000 78.741410 15.000000
4607 2 209.296000 79.520000 17.104598
4608 2 207.648000 81.013410 17.104598
4609 1 210.944000 0.000000 15.000000
4610 1 212.592000 1.493410 15.000000
4611 2 212.592000 2.272000 17.104598
4612 2 210.944000 3.765410 17.104598
4613 1 210.944000 4.544000 15.000000
4614 1 212.592000 6.037410 15.000000
4615 2 212.592000 6.816000 17.104598
4616 2 210.944000 8.309410 17.104598
4617 1 210.944000 9.088000 15.000000
4618 1 212.592000 10.581410 15.000000
4619 2 212.592000 11.360000 17.104598
4620 2 210.944000 12.853410 17.104598
4621 1 210.944000 13.632000 15.000000
4622 1 212.592000 15.125410 15.000000
4623 2 212.592000 15.904000 17.104598
4624 2 210.944000 17.397410 17.104598
4625 1 210.944000 18.176000 15.000000
4626 1 212.592000 19.669410 15.000000
4627 2 212.592000 20.448000 17.104598
4628 2 210.944000 21.941410 17.104598
4629 1 210.944000 22.720000 15.000000
4630 1 212.592000 24.213410 15.000000
4631 2 212.592000 24.992000 17.104598
4632 2 210.944000 26.485410 17.104598
4633 1 210.944000 27.264000 15.000000
4634 1 212.592000 28.757410 15.000000
4635 2 212.592000 29.536000 17.104598
4636 2 210.944000 31.029410 17.104598
4637 1 210.944000 31.808000 15.000000
4638 1 212.592000 33.301410 15.000000
4639 2 212.592000 34.080000 17.104598
4640 2 210.944000 35.573410 17.104598
4641 1 210.944000 36.352000 15.000000
4642 1 212.592000 37.845410 15.000000
4643 2 212.592000 38.624000 17.104598
4644 2 210.944000 40.117410 17.104598
4645 1 210.944000 40.896000 15.000000
4646 1 212.592000 42.389410 15.000000
4647 2 212.592000 43.168000 17.104598
4648 2 210.944000 44.661410 17.104598
4649 1 210.944000 45.440000 15.000000
4650 1 212.592000 46.933410 15.000000
4651 2 212.592000 47.712000 17.104598
4652 2 210.944000 49.205410 17.104598
4653 1 210.944000 49.984000 15.000000
4654 1 212.592000 51.477410 15.000000
4655 2 212.592000 52.256000 17.104598
4656 2 210.944000 53.749410 17.104598
4657 1 210.944000 54.528000 15.000000
4658 1 212.592000 56.021410 15.000000
4659 2 212.592000 56.800000 17.104598
4660 2 210.944000 58.293410 17.104598
4661 1 210.944000 59.072000 15.000000
4662 1 212.592000 60.565410 15.000000
4663 2 212.592000 61.344000 17.104598
4664 2 210.944000 62.837410 17.104598
4665 1 210.944000 63.616000 15.000000
4666 1 212.592000 65.109410 15.000000
4667 2 212.592000 65.888000 17.104598
4668 2 210.944000 67.381410 17.104598
4669 1 210.944000 68.160000 15.000000
4670 1 212.592000 69.653410 15.000000
4671 2 212.592000 70.432000 17.104598
4672 2 210.944000 71.925410 17.104598
4673 1 210.944000 72.704000 15.000000
4674 1 212.592000 74.197410 15.000000
4675 2 212.592000 74.976000 17.104598
4676 2 210.944000 76.469410 17.104598
4677 1 210.944000 77.248000 15.000000
4678 1 212.592000 78.741410 15.000000
4679 2 212.592000 79.520000 17.104598
4680 2 210.944000 81.013410 17.104598
4681 1 214.240000 0.000000 15.000000
4682 1 215.888000 1.493410 15.000000
4683 2 215.888000 2.272000 17.104598
4684 2 214.240000 3.765410 17.104598
4685 1 214.240000 4.544000 15.000000
4686 1 215.888000 6.037410 15.000000
4687 2 215.888000 6.816000 17.104598
4688 2 214.240000 8.309410 17.104598
4689 1 214.240000 9.088000 15.000000
4690 1 215.888000 10.581410 15.000000
4691 2 215.888000 11.360000 17.104598
4692 2 214.240000 12.853410 17.104598
4693 1 214.240000 13.632000 15.000000
4694 1 215.888000 15.125410 15.000000
4695 2 215.888000 15.904000 17.104598
4696 2 214.240000 17.397410 17.104598
4697 1 214.240000 18.176000 15.000000
4698 1 215.888000 19.669410 15.000000
4699 2 215.888000 20.448000 17.104598
4700 2 214.240000 21.941410 17.104598
4701 1 214.240000 22.720000 15.000000
4702 1 215.888000 24.213410 15.000000
4703 2 215.888000 24.992000 17.104598
4704 2 214.240000 26.485410 17.104598
4705 1 214.240000 27.264000 15.000000
4706 1 215.888000 28.757410 15.000000
4707 2 215.888000 29.536000 17.104598
4708 2 214.240000 31.029410 17.104598
4709 1 214.240000 31.808000 15.000000
4710 1 215.888000 33.301410 15.000000
4711 2 215.888000 34.080000 17.104598
4712 2 214.240000 35.573410 17.104598
4713 1 214.240000 36.352000 15.000000
4714 1 215.888000 37.845410 15.000000
4715 2 215.888000 38.624000 17.104598
4716 2 214.240000 40.117410 17.104598
4717 1 214.240000 40.896000 15.000000
4718 1 215.888000 42.389410 15.000000
4719 2 215.888000 43.168000 17.104598
4720 2 214.240000 44.661410 17.104598
4721 1 214.240000 45.440000 15.000000
4722 1 215.888000 46.933410 15.000000
4723 2 215.888000 47.712000 17.104598
4724 2 214.240000 49.205410 17.104598
4725 1 214.240000 49.984000 15.000000
4726 1 215.888000 51.477410 15.000000
4727 2 215.888000 52.256000 17.104598
4728 2 214.240000 53.749410 17.104598
4729 1 214.240000 54.528000 15.000000
4730 1 215.888000 56.021410 15.000000
4731 2 215.888000 56.800000 17.104598
4732 2 214.240000 58.293410 17.104598
4733 1 214.240000 59.072000 15.000000
4734 1 215.888000 60.565410 15.000000
4735 2 215.888000 61.344000 17.104598
4736 2 214.240000 62.837410 17.104598
4737 1 214.240000 63.616000 15.000000
4738 1 215.888000 65.109410 15.000000
4739 2 215.888000 65.888000 17.104598
4740 2 214.240000 67.381410 17.104598
4741 1 214.240000 68.160000 15.000000
4742 1 215.888000 69.653410 15.000000
4743 2 215.888000 70.432000 17.104598
4744 2 214.240000 71.925410 17.104598
4745 1 214.240000 72.704000 15.000000
4746 1 215.888000 74.197410 15.000000
4747 2 215.888000 74.976000 17.104598
4748 2 214.240000 76.469410 17.104598
4749 1 214.240000 77.248000 15.000000
4750 1 215.888000 78.741410 15.000000
4751 2 215.888000 79.520000 17.104598
4752 2 214.240000 81.013410 17.104598
4753 1 217.536000 0.000000 15.000000
4754 1 219.184000 1.493410 15.000000
4755 2 219.184000 2.272000 17.104598
4756 2 217.536000 3.765410 17.104598
4757 1 217.536000 4.544000 15.000000
4758 1 219.184000 6.037410 15.000000
4759 2 219.184000 6.816000 17.104598
4760 2 217.536000 8.309410 17.104598
4761 1 217.536000 9.088000 15.000000
4762 1 219.184000 10.581410 15.000000
4763 2 219.184000 11.360000 17.104598
4764 2 217.536000 12.853410 17.104598
4765 1 217.536000 13.632000 15.000000
4766 1 219.184000 15.125410 15.000000
4767 2 219.184000 15.904000 17.104598
4768 2 217.536000 17.397410 17.104598
4769 1 217.536000 18.176000 15.000000
4770 1 219.184000 19.669410 15.000000
4771 2 219.184000 20.448000 17.104598
4772 2 217.536000 21.941410 17.104598
4773 1 217.536000 22.720000 15.000000
4774 1 219.184000 24.213410 15.000000
4775 2 219.184000 24.992000 17.104598
4776 2 217.536000 26.485410 17.104598
4777 1 217.536000 27.264000 15.000000
4778 1 219.184000 28.757410 15.000000
4779 2 219.184000 29.536000 17.104598
4780 2 217.536000 31.029410 17.104598
4781 1 217.536000 31.808000 15.000000
4782 1 219.184000 33.301410 15.000000
4783 2 219.184000 34.080000 17.104598
4784 2 217.536000 35.573410 17.104598
4785 1 217.536000 36.352000 15.000000
4786 1 219.184000 37.845410 15.000000
4787 2 219.184000 38.624000 17.104598
4788 2 217.536000 40.117410 17.104598
4789 1 217.536000 40.896000 15.000000
4790 1 219.184000 42.389410 15.000000
4791 2 219.184000 43.168000 17.104598
4792 2 217.536000 44.661410 17.104598
4793 1 217.536000 45.440000 15.000000
4794 1 219.184000 46.933410 15.000000
4795 2 219.184000 47.712000 17.104598
4796 2 217.536000 49.205410 17.104598
4797 1 217.536000 49.984000 15.000000
4798 1 219.184000 51.477410 15.000000
4799 2 219.184000 52.256000 17.104598
4800 2 217.536000 53.749410 17.104598
4801 1 217.536000 54.528000 15.000000
4802 1 219.184000 56.021410 15.000000
4803 2 219.184000 56.800000 17.104598
4804 2 217.536000 58.293410 17.104598
4805 1 217.536000 59.072000 15.000000
4806 1 219.184000 60.565410 15.000000
4807 2 219.184000 61.344000 17.104598
4808 2 217.536000 62.837410 17.104598
4809 1 217.536000 63.616000 15.000000
4810 1 219.184000 65.109410 15.000000
4811 2 219.184000 65.888000 17.104598
4812 2 217.536000 67.381410 17.104598
4813 1 217.536000 68.160000 15.000000
4814 1 219.184000 69.653410 15.000000
4815 2 219.184000 70.432000 17.104598
4816 2 217.536000 71.925410 17.104598
4817 1 217.536000 72.704000 15.000000
4818 1 219.184000 74.197410 15.000000
4819 2 219.184000 74.976000 17.104598
4820 2 217.536000 76.469410 17.104598
4821 1 217.536000 77.248000 15.000000
4822 1 219.184000 78.741410 15.000000
4823 2 219.184000 79.520000 17.104598
4824 2 217.536000 81.013410 17.104598
4825 1 220.832000 0.000000 15.000000
4826 1 222.480000 1.493410 15.000000
4827 2 222.480000 2.272000 17.104598
4828 2 220.832000 3.765410 17.104598
4829 1 220.832000 4.544000 15.000000
4830 1 222.480000 6.037410 15.000000
4831 2 222.480000 6.816000 17.104598
4832 2 220.832000 8.309410 17.104598
4833 1 220.832000 9.088000 15.000000
4834 1 222.480000 10.581410 15.000000
4835 2 222.480000 11.360000 17.104598
4836 2 220.832000 12.853410 17.104598
4837 1 220.832000 13.632000 15.000000
4838 1 222.480000 15.125410 15.000000
4839 2 222.480000 15.904000 17.104598
4840 2 220.832000 17.397410 17.104598
4841 1 220.832000 18.176000 15.000000
4842 1 222.480000 19.669410 15.000000
4843 2 222.480000 20.448000 17.104598
4844 2 220.832000 21.941410 17.104598
4845 1 220.832000 22.720000 15.000000
4846 1 222.480000 24.213410 15.000000
4847 2 222.480000 24.992000 17.104598
4848 2 220.832000 26.485410 17.104598
4849 1 220.832000 27.264000 15.000000
4850 1 222.480000 28.757410 15.000000
4851 2 222.480000 29.536000 17.104598
4852 2 220.832000 31.029410 17.104598
4853 1 220.832000 31.808000 15.000000
4854 1 222.480000 33.301410 15.000000
4855 2 222.480000 34.080000 17.104598
4856 2 220.832000 35.573410 17.104598
4857 1 220.832000 36.352000 15.000000
4858 1 222.480000 37.845410 15.000000
4859 2 222.480000 38.624000 17.104598
4860 2 220.832000 40.117410 17.104598
4861 1 220.832000 40.896000 15.000000
4862 1 222.480000 42.389410 15.000000
4863 2 222.480000 43.168000 17.104598
4864 2 220.832000 44.661410 17.104598
4865 1 220.832000 45.440000 15.000000
4866 1 222.480000 46.933410 15.000000
4867 2 222.480000 47.712000 17.104598
4868 2 220.832000 49.205410 17.104598
4869 1 220.832000 49.984000 15.000000
4870 1 222.480000 51.477410 15.000000
4871 2 222.480000 52.256000 17.104598
4872 2 220.832000 53.749410 17.104598
4873 1 220.832000 54.528000 15.000000
4874 1 222.480000 56.021410 15.000000
4875 2 222.480000 56.800000 17.104598
4876 2 220.832000 58.293410 17.104598
4877 1 220.832000 59.072000 15.000000
4878 1 222.480000 60.565410 15.000000
4879 2 222.480000 61.344000 17.104598
4880 2 220.832000 62.837410 17.104598
4881 1 220.832000 63.616000 15.000000
4882 1 222.480000 65.109410 15.000000
4883 2 222.480000 65.888000 17.104598
4884 2 220.832000 67.381410 17.104598
4885 1 220.832000 68.160000 15.000000
4886 1 222.480000 69.653410 15.000000
4887 2 222.480000 70.432000 17.104598
4888 2 220.832000 71.925410 17.104598
4889 1 220.832000 72.704000 15.000000
4890 1 222.480000 74.197410 15.000000
4891 2 222.480000 74.976000 17.104598
4892 2 220.832000 76.469410 17.104598
4893 1 220.832000 77.248000 15.000000
4894 1 222.480000 78.741410 15.000000
4895 2 222.480000 79.520000 17.104598
4896 2 220.832000 81.013410 17.104598
